5
Properties=species:S:1:pos:R:3:forces:R:3 energy=-23.991806060000 pbc="F F F"
H      5.365860000000     4.054150000000     3.598480000000     0.005690000000     0.165667000000     0.327558000000
H      3.926110000000     4.826280000000     4.424480000000     0.419680000000     0.042162000000     0.091936000000
H      5.563600000000     5.650330000000     4.430640000000    -0.312920000000    -0.326706000000    -0.127448000000
H      5.287290000000     4.143470000000     5.367030000000    -0.069460000000    -0.159150000000    -0.061814000000
C      5.019360000000     4.688790000000     4.441030000000    -0.042763000000     0.277925000000    -0.230453000000
5
Properties=species:S:1:pos:R:3:forces:R:3 energy=-23.998306320000 pbc="F F F"
H      5.366080000000     4.060560000000     3.611160000000    -0.179047000000     0.088243000000    -0.159569000000
H      3.942350000000     4.827910000000     4.428040000000    -0.298426000000     0.105583000000    -0.170548000000
H      5.551490000000     5.637680000000     4.425710000000     0.027466000000     0.289528000000    -0.007289000000
H      5.284600000000     4.137310000000     5.364630000000    -0.071809000000     0.248918000000    -0.147490000000
C      5.019230000000     4.689690000000     4.440290000000     0.521855000000    -0.732149000000     0.484989000000
5
Properties=species:S:1:pos:R:3:forces:R:3 energy=-23.999800810000 pbc="F F F"
H      5.351880000000     4.073160000000     3.605610000000     0.357000000000    -0.113329000000    -0.157437000000
H      3.936610000000     4.842310000000     4.416410000000     0.087366000000     0.155953000000     0.255810000000
H      5.535480000000     5.651610000000     4.415410000000    -0.138757000000     0.076433000000    -0.290959000000
H      5.274080000000     4.146870000000     5.353870000000    -0.120570000000    -0.423814000000     0.283647000000
C      5.023100000000     4.685480000000     4.443470000000    -0.184399000000     0.304108000000    -0.090173000000
5
Properties=species:S:1:pos:R:3:forces:R:3 energy=-24.000928120000 pbc="F F F"
H      5.358170000000     4.071470000000     3.586840000000    -0.176939000000     0.224124000000     0.162744000000
H      3.929080000000     4.857340000000     4.417560000000     0.377438000000    -0.144590000000    -0.065496000000
H      5.525110000000     5.670610000000     4.398830000000    -0.034732000000    -0.340766000000     0.127691000000
H      5.264190000000     4.136590000000     5.362300000000     0.092685000000     0.110640000000     0.157253000000
C      5.024890000000     4.683650000000     4.445610000000    -0.258480000000     0.150308000000    -0.381827000000
5
Properties=species:S:1:pos:R:3:forces:R:3 energy=-23.991561580000 pbc="F F F"
H      5.357740000000     4.078520000000     3.573780000000    -0.271608000000     0.228453000000     0.341693000000
H      3.936100000000     4.867240000000     4.416170000000     0.210679000000    -0.217538000000    -0.124514000000
H      5.512990000000     5.676910000000     4.386660000000     0.041094000000    -0.419594000000     0.257993000000
H      5.257580000000     4.130280000000     5.377230000000     0.101936000000     0.342746000000    -0.224369000000
C      5.025900000000     4.682240000000     4.446590000000    -0.082180000000     0.066697000000    -0.251509000000
5
Properties=species:S:1:pos:R:3:forces:R:3 energy=-23.995298840000 pbc="F F F"
H      5.346580000000     4.094870000000     3.573620000000    -0.100758000000    -0.051037000000     0.111829000000
H      3.951730000000     4.868980000000     4.409820000000    -0.254560000000    -0.158511000000    -0.087257000000
H      5.501980000000     5.666940000000     4.384140000000     0.253492000000    -0.048521000000     0.262310000000
H      5.254710000000     4.137210000000     5.383950000000     0.111661000000     0.305370000000    -0.299183000000
C      5.026680000000     4.680980000000     4.446780000000    -0.009574000000    -0.049262000000     0.012554000000
5
Properties=species:S:1:pos:R:3:forces:R:3 energy=-23.990314470000 pbc="F F F"
H      5.330880000000     4.110040000000     3.577880000000     0.284567000000    -0.318343000000    -0.050091000000
H      3.958080000000     4.864550000000     4.399700000000    -0.471403000000     0.183399000000     0.189037000000
H      5.500440000000     5.654560000000     4.391880000000     0.214854000000     0.498304000000     0.098849000000
H      5.256110000000     4.156570000000     5.379170000000     0.072285000000    -0.089183000000     0.004720000000
C      5.027470000000     4.679510000000     4.447020000000    -0.100205000000    -0.275095000000    -0.243777000000
5
Properties=species:S:1:pos:R:3:forces:R:3 energy=-23.991146720000 pbc="F F F"
H      5.325580000000     4.113440000000     3.580410000000     0.266477000000    -0.510139000000    -0.230208000000
H      3.946070000000     4.867150000000     4.396500000000    -0.090375000000     0.176679000000     0.102742000000
H      5.507330000000     5.661250000000     4.403980000000    -0.054472000000     0.237159000000     0.104634000000
H      5.260460000000     4.173500000000     5.374310000000     0.170210000000    -0.332156000000     0.272711000000
C      5.027980000000     4.677040000000     4.446480000000    -0.290439000000     0.427144000000    -0.250027000000
5
Properties=species:S:1:pos:R:3:forces:R:3 energy=-23.994385690000 pbc="F F F"
H      5.330540000000     4.096730000000     3.573920000000     0.105351000000    -0.183484000000    -0.079946000000
H      3.929670000000     4.876950000000     4.397190000000     0.507066000000    -0.253964000000     0.041764000000
H      5.512510000000     5.677820000000     4.421040000000    -0.053225000000    -0.461139000000    -0.003412000000
H      5.271870000000     4.178300000000     5.380000000000     0.089037000000    -0.228448000000     0.164587000000
C      5.027550000000     4.675840000000     4.445060000000    -0.647369000000     1.125979000000    -0.123215000000
5
Properties=species:S:1:pos:R:3:forces:R:3 energy=-23.964860120000 pbc="F F F"
H      5.242440000000     4.032660000000     3.681790000000    -0.395871000000     0.440801000000     0.848174000000
H      3.787250000000     4.813280000000     4.529510000000     0.441065000000     0.046147000000    -0.050084000000
H      5.408080000000     5.609380000000     4.527200000000     0.201047000000     0.878314000000    -0.047847000000
H      5.161330000000     4.163180000000     5.491090000000    -0.111946000000    -0.017579000000    -0.383022000000
C      4.885890000000     4.676090000000     4.535460000000    -0.134123000000    -1.347717000000    -0.367540000000
5
Properties=species:S:1:pos:R:3:forces:R:3 energy=-23.982170820000 pbc="F F F"
H      5.200160000000     4.050330000000     3.727730000000     0.246235000000    -0.578868000000    -0.937501000000
H      3.798510000000     4.823990000000     4.529480000000     0.130032000000    -0.005847000000    -0.087885000000
H      5.412630000000     5.626420000000     4.514740000000     0.042666000000     0.238829000000    -0.135869000000
H      5.172180000000     4.164420000000     5.492170000000    -0.234433000000     0.265021000000    -0.543433000000
C      4.887190000000     4.672210000000     4.532590000000    -0.184729000000     0.081062000000     1.704505000000
5
Properties=species:S:1:pos:R:3:forces:R:3 energy=-23.961641610000 pbc="F F F"
H      5.112960000000     3.984820000000     3.679590000000     0.047700000000     0.620279000000     0.624503000000
H      3.795070000000     4.882750000000     4.508070000000     0.560382000000    -0.286485000000     0.330954000000
H      5.388570000000     5.617100000000     4.451990000000     0.606964000000     0.670859000000    -0.252591000000
H      5.216210000000     4.184200000000     5.491280000000    -0.389447000000     0.203634000000    -0.417849000000
C      4.893070000000     4.671900000000     4.543680000000    -0.825275000000    -1.208710000000    -0.284710000000
5
Properties=species:S:1:pos:R:3:forces:R:3 energy=-23.982501260000 pbc="F F F"
H      5.094090000000     4.016090000000     3.713340000000     0.335955000000    -0.469141000000    -0.604344000000
H      3.803000000000     4.885340000000     4.521120000000     0.359122000000    -0.184541000000     0.279711000000
H      5.401120000000     5.621460000000     4.423460000000     0.319699000000     0.241314000000    -0.077474000000
H      5.213710000000     4.186230000000     5.496560000000    -0.328483000000     0.288588000000    -0.534658000000
C      4.893150000000     4.668550000000     4.541720000000    -0.686304000000     0.123612000000     0.937434000000
5
Properties=species:S:1:pos:R:3:forces:R:3 energy=-23.968201620000 pbc="F F F"
H      5.088700000000     4.028310000000     3.722840000000     0.213596000000    -0.879876000000    -0.901274000000
H      3.824170000000     4.880860000000     4.544180000000    -0.379389000000     0.357201000000    -0.068933000000
H      5.425220000000     5.634760000000     4.393190000000    -0.311614000000    -0.183602000000     0.314497000000
H      5.198900000000     4.199090000000     5.481410000000     0.175400000000     0.168075000000    -0.090471000000
C      4.891060000000     4.665720000000     4.542790000000     0.302653000000     0.537099000000     0.746221000000
5
Properties=species:S:1:pos:R:3:forces:R:3 energy=-23.968987380000 pbc="F F F"
H      5.091620000000     4.006810000000     3.697920000000     0.256123000000    -0.044158000000     0.045995000000
H      3.830040000000     4.890040000000     4.563570000000    -0.367346000000     0.224608000000     0.189397000000
H      5.436460000000     5.640520000000     4.376190000000    -0.346099000000    -0.679578000000     0.153189000000
H      5.191400000000     4.217680000000     5.463560000000     0.364549000000    -0.442995000000     0.920704000000
C      4.890020000000     4.664720000000     4.546150000000     0.092328000000     0.941552000000    -1.309861000000
5
Properties=species:S:1:pos:R:3:forces:R:3 energy=-23.986596600000 pbc="F F F"
H      5.104040000000     3.984680000000     3.675940000000     0.037643000000     0.496387000000     0.767682000000
H      3.821800000000     4.907240000000     4.589160000000     0.073131000000     0.052178000000     0.073957000000
H      5.434110000000     5.620420000000     4.365790000000    -0.096586000000    -0.272489000000    -0.013785000000
H      5.197980000000     4.218690000000     5.481250000000     0.184522000000    -0.275891000000     0.265852000000
C      4.889320000000     4.666720000000     4.545240000000    -0.198193000000     0.000320000000    -1.093617000000
5
Properties=species:S:1:pos:R:3:forces:R:3 energy=-23.991768180000 pbc="F F F"
H      5.402140000000     4.140440000000     3.713360000000     0.175267000000    -0.107567000000    -0.282647000000
H      3.983350000000     4.879220000000     4.536690000000     0.503100000000     0.126356000000     0.142360000000
H      5.615670000000     5.716250000000     4.532110000000    -0.010407000000     0.289980000000    -0.027583000000
H      5.365920000000     4.235660000000     5.473520000000    -0.131982000000     0.098561000000    -0.023595000000
C      5.086800000000     4.766180000000     4.536350000000    -0.536028000000    -0.408041000000     0.191851000000
5
Properties=species:S:1:pos:R:3:forces:R:3 energy=-23.946709520000 pbc="F F F"
H      5.402890000000     4.163840000000     3.729930000000     0.389666000000    -0.771203000000    -1.327207000000
H      3.976650000000     4.861350000000     4.549420000000     0.633271000000     0.113386000000    -0.119108000000
H      5.585860000000     5.707030000000     4.531750000000     0.327762000000     1.060229000000    -0.154508000000
H      5.381130000000     4.245820000000     5.459360000000    -0.041732000000    -0.008066000000     0.059145000000
C      5.088510000000     4.765640000000     4.535120000000    -1.308602000000    -0.394499000000     1.541296000000
5
Properties=species:S:1:pos:R:3:forces:R:3 energy=-23.989433970000 pbc="F F F"
H      5.418560000000     4.157360000000     3.695410000000     0.006364000000    -0.026350000000    -0.156369000000
H      3.994310000000     4.848080000000     4.557410000000     0.066459000000    -0.060357000000     0.011746000000
H      5.569040000000     5.738560000000     4.525470000000     0.092112000000     0.123322000000    -0.030467000000
H      5.394520000000     4.255530000000     5.447670000000     0.133186000000    -0.302272000000     0.633131000000
C      5.086020000000     4.763850000000     4.538830000000    -0.297420000000     0.265478000000    -0.455487000000
5
Properties=species:S:1:pos:R:3:forces:R:3 energy=-23.963643350000 pbc="F F F"
H      5.434150000000     4.150000000000     3.655620000000    -0.349780000000     0.569783000000     0.793369000000
H      4.014140000000     4.832790000000     4.565670000000    -0.804790000000     0.129958000000    -0.127636000000
H      5.556070000000     5.774160000000     4.518150000000    -0.349610000000    -0.576149000000    -0.074764000000
H      5.412730000000     4.253500000000     5.460400000000     0.063729000000    -0.050017000000    -0.071366000000
C      5.082640000000     4.762940000000     4.541000000000     1.440458000000    -0.073732000000    -0.518505000000
5
Properties=species:S:1:pos:R:3:forces:R:3 energy=-23.967354760000 pbc="F F F"
H      5.435980000000     4.164530000000     3.647140000000    -0.130810000000     0.554162000000     0.801785000000
H      4.002790000000     4.822870000000     4.568850000000    -0.210993000000     0.021288000000     0.035879000000
H      5.530180000000     5.786830000000     4.508190000000    -0.185085000000    -0.645323000000    -0.121476000000
H      5.432840000000     4.249620000000     5.470060000000    -0.079846000000     0.093373000000    -0.418301000000
C      5.083910000000     4.761820000000     4.541470000000     0.607603000000    -0.022061000000    -0.295938000000
5
Properties=species:S:1:pos:R:3:forces:R:3 energy=-23.996151130000 pbc="F F F"
H      5.432790000000     4.199660000000     3.669390000000     0.248220000000    -0.043725000000     0.045241000000
H      3.983770000000     4.814060000000     4.573280000000     0.306418000000     0.074593000000     0.268717000000
H      5.498050000000     5.774590000000     4.493920000000    -0.124195000000     0.067925000000    -0.184940000000
H      5.449300000000     4.249410000000     5.463510000000    -0.329308000000    -0.029613000000    -0.407610000000
C      5.087070000000     4.760670000000     4.540980000000    -0.100741000000    -0.069088000000     0.278926000000
5
Properties=species:S:1:pos:R:3:forces:R:3 energy=-23.979696830000 pbc="F F F"
H      5.460370000000     4.220410000000     3.633830000000    -0.474029000000     0.287741000000     0.625580000000
H      4.006470000000     4.778200000000     4.594140000000    -0.538934000000    -0.176618000000    -0.133889000000
H      5.430210000000     5.812410000000     4.458600000000     0.030182000000    -0.455895000000     0.298754000000
H      5.474580000000     4.254960000000     5.427560000000     0.240055000000     0.034627000000     0.349766000000
C      5.086420000000     4.758320000000     4.548140000000     0.743385000000     0.310031000000    -1.139997000000
5
Properties=species:S:1:pos:R:3:forces:R:3 energy=-23.962264460000 pbc="F F F"
H      5.051500000000     4.136390000000     3.595820000000    -0.618560000000     0.786354000000     0.561166000000
H      3.598660000000     4.926690000000     4.422560000000    -0.790836000000     0.022544000000    -0.283881000000
H      5.174400000000     5.768610000000     4.426840000000    -0.125309000000    -0.365105000000     0.018194000000
H      4.920140000000     4.230720000000     5.355140000000     0.015051000000     0.247221000000     0.084204000000
C      4.661630000000     4.786420000000     4.440200000000     1.519598000000    -0.691178000000    -0.379872000000
5
Properties=species:S:1:pos:R:3:forces:R:3 energy=-23.987973840000 pbc="F F F"
H      5.020610000000     4.150690000000     3.619160000000    -0.226683000000     0.217562000000    -0.287009000000
H      3.563160000000     4.925170000000     4.423930000000     0.475774000000    -0.092122000000    -0.133073000000
H      5.176440000000     5.752380000000     4.422910000000     0.046999000000     0.095928000000     0.008574000000
H      4.944950000000     4.217300000000     5.347190000000    -0.147590000000     0.398469000000    -0.017463000000
C      4.664920000000     4.787820000000     4.439130000000    -0.148553000000    -0.619484000000     0.429264000000
5
Properties=species:S:1:pos:R:3:forces:R:3 energy=-23.949879400000 pbc="F F F"
H      4.981200000000     4.173280000000     3.631320000000     0.396965000000    -0.578552000000    -1.139092000000
H      3.546170000000     4.920120000000     4.420170000000     1.149762000000    -0.131301000000     0.140065000000
H      5.180280000000     5.739930000000     4.419340000000     0.196110000000     0.337104000000    -0.033022000000
H      4.963940000000     4.219300000000     5.338630000000    -0.151067000000     0.146201000000     0.162596000000
C      4.667720000000     4.787230000000     4.439440000000    -1.591891000000     0.226533000000     0.869990000000
5
Properties=species:S:1:pos:R:3:forces:R:3 energy=-23.997372440000 pbc="F F F"
H      4.957420000000     4.173420000000     3.599610000000     0.198774000000    -0.321247000000    -0.461721000000
H      3.573510000000     4.910080000000     4.421820000000     0.273828000000     0.188963000000     0.051346000000
H      5.191610000000     5.740560000000     4.414530000000    -0.097653000000     0.214753000000     0.013526000000
H      4.976940000000     4.226890000000     5.336390000000    -0.005159000000     0.029385000000     0.028580000000
C      4.665400000000     4.787370000000     4.442530000000    -0.392507000000    -0.091758000000     0.368066000000
5
Properties=species:S:1:pos:R:3:forces:R:3 energy=-23.964581110000 pbc="F F F"
H      4.941660000000     4.161210000000     3.550680000000    -0.076082000000     0.388873000000     0.570625000000
H      3.610990000000     4.907370000000     4.425420000000    -1.344486000000     0.328058000000     0.082848000000
H      5.199090000000     5.749350000000     4.410300000000    -0.354407000000    -0.218731000000    -0.111904000000
H      4.989600000000     4.235440000000     5.335280000000    -0.117703000000    -0.109352000000    -0.018582000000
C      4.661910000000     4.787170000000     4.446750000000     1.901248000000    -0.362336000000    -0.500901000000
5
Properties=species:S:1:pos:R:3:forces:R:3 energy=-23.969486160000 pbc="F F F"
H      4.923300000000     4.164040000000     3.524510000000    -0.125999000000     0.698767000000     0.990128000000
H      3.596320000000     4.917190000000     4.432050000000    -0.661211000000     0.191147000000     0.196522000000
H      5.192850000000     5.749550000000     4.401850000000    -0.162425000000    -0.098299000000    -0.079402000000
H      4.997480000000     4.239580000000     5.333430000000    -0.094964000000    -0.113077000000     0.143602000000
C      4.664520000000     4.785760000000     4.449230000000     1.044462000000    -0.679164000000    -1.251386000000
5
Properties=species:S:1:pos:R:3:forces:R:3 energy=-23.995299990000 pbc="F F F"
H      4.900540000000     4.193480000000     3.536710000000     0.003104000000     0.068314000000     0.247292000000
H      3.556740000000     4.934090000000     4.446040000000     0.709544000000    -0.091962000000     0.150419000000
H      5.180560000000     5.745990000000     4.390550000000    -0.054761000000     0.056021000000    -0.007440000000
H      5.001560000000     4.239310000000     5.337110000000    -0.122052000000    -0.082498000000     0.016159000000
C      4.670400000000     4.782220000000     4.447690000000    -0.522270000000     0.061919000000    -0.395226000000
5
Properties=species:S:1:pos:R:3:forces:R:3 energy=-23.962772910000 pbc="F F F"
H      4.878520000000     4.224650000000     3.557950000000     0.357576000000    -0.680147000000    -0.837319000000
H      3.545260000000     4.946970000000     4.465320000000     1.179960000000    -0.155337000000     0.178875000000
H      5.166500000000     5.744640000000     4.379260000000     0.162684000000     0.298842000000     0.072087000000
H      5.000850000000     4.235880000000     5.341260000000    -0.066112000000     0.027546000000    -0.075852000000
C      4.674420000000     4.778950000000     4.444910000000    -1.606735000000     0.523976000000     0.658410000000
5
Properties=species:S:1:pos:R:3:forces:R:3 energy=-23.984396100000 pbc="F F F"
H      4.870720000000     4.228950000000     3.546720000000     0.125968000000    -0.442654000000    -0.668040000000
H      3.578880000000     4.953510000000     4.490790000000     0.052235000000    -0.019165000000     0.113235000000
H      5.159010000000     5.754640000000     4.371080000000     0.031222000000     0.142162000000     0.084576000000
H      4.997590000000     4.233570000000     5.342420000000    -0.184644000000     0.211438000000    -0.195894000000
C      4.673160000000     4.777400000000     4.444310000000    -0.028306000000     0.105772000000     0.667549000000
5
Properties=species:S:1:pos:R:3:forces:R:3 energy=-23.979887490000 pbc="F F F"
H      4.867970000000     4.216320000000     3.510520000000     0.157755000000     0.065562000000     0.507914000000
H      3.613350000000     4.959110000000     4.519680000000    -0.742178000000     0.210967000000     0.124145000000
H      5.152960000000     5.769700000000     4.366390000000     0.000613000000    -0.192546000000     0.092375000000
H      4.987440000000     4.239370000000     5.336090000000     0.272127000000    -0.209230000000     0.087376000000
C      4.671870000000     4.776250000000     4.445830000000     0.310928000000     0.125653000000    -0.812081000000
5
Properties=species:S:1:pos:R:3:forces:R:3 energy=-23.940416300000 pbc="F F F"
H      5.468490000000     4.095690000000     3.545810000000    -0.129994000000    -0.052255000000    -0.259313000000
H      4.079920000000     4.860690000000     4.380110000000    -1.405448000000     0.293666000000    -0.233676000000
H      5.674090000000     5.618360000000     4.407140000000     0.435997000000     1.074761000000    -0.067077000000
H      5.379910000000     4.143430000000     5.323290000000    -0.181762000000     0.382987000000    -0.658243000000
C      5.124070000000     4.707890000000     4.380220000000     1.281526000000    -1.699237000000     1.218169000000
5
Properties=species:S:1:pos:R:3:forces:R:3 energy=-23.990766860000 pbc="F F F"
H      5.451900000000     4.112830000000     3.532950000000     0.076889000000    -0.013404000000    -0.278972000000
H      4.051230000000     4.882370000000     4.373690000000    -0.014929000000    -0.015144000000     0.016501000000
H      5.690220000000     5.658290000000     4.419490000000    -0.131459000000    -0.334158000000    -0.029939000000
H      5.362460000000     4.153160000000     5.296230000000     0.065543000000    -0.142185000000     0.490727000000
C      5.127950000000     4.700520000000     4.383050000000     0.004078000000     0.504687000000    -0.198953000000
5
Properties=species:S:1:pos:R:3:forces:R:3 energy=-23.975690190000 pbc="F F F"
H      5.428510000000     4.139560000000     3.479410000000    -0.051720000000     0.083610000000     0.359465000000
H      4.031910000000     4.922310000000     4.356290000000     0.764145000000    -0.058538000000    -0.058186000000
H      5.685160000000     5.674020000000     4.434760000000    -0.439899000000    -0.592153000000    -0.118662000000
H      5.344770000000     4.142030000000     5.302490000000     0.112084000000    -0.248499000000     0.001432000000
C      5.133400000000     4.694590000000     4.387160000000    -0.384892000000     0.815657000000    -0.183847000000
5
Properties=species:S:1:pos:R:3:forces:R:3 energy=-23.973751790000 pbc="F F F"
H      5.416810000000     4.152850000000     3.463820000000    -0.242563000000     0.117175000000     0.521048000000
H      4.069710000000     4.938720000000     4.342780000000    -0.379735000000    -0.016707000000    -0.128609000000
H      5.653340000000     5.641530000000     4.434460000000     0.379533000000     0.573575000000     0.161601000000
H      5.345960000000     4.118000000000     5.315960000000    -0.019547000000     0.288296000000    -0.601687000000
C      5.133780000000     4.696820000000     4.388490000000     0.262395000000    -0.962380000000     0.047206000000
5
Properties=species:S:1:pos:R:3:forces:R:3 energy=-23.960494280000 pbc="F F F"
H      5.396510000000     4.169930000000     3.468600000000     0.036526000000    -0.294342000000     0.080140000000
H      4.091430000000     4.953730000000     4.325050000000    -0.882829000000     0.178756000000    -0.116423000000
H      5.637320000000     5.632170000000     4.440260000000     0.639444000000     1.105578000000     0.174230000000
H      5.346370000000     4.105970000000     5.306120000000     0.032655000000     0.195342000000    -0.683609000000
C      5.134960000000     4.695930000000     4.389900000000     0.173304000000    -1.183853000000     0.544202000000
5
Properties=species:S:1:pos:R:3:forces:R:3 energy=-23.967003110000 pbc="F F F"
H      5.378630000000     4.175070000000     3.476150000000     0.428391000000    -0.305703000000    -0.377561000000
H      4.078840000000     4.974690000000     4.303850000000    -0.179254000000    -0.315696000000     0.324540000000
H      5.646170000000     5.664870000000     4.452330000000     0.342194000000    -0.221163000000    -0.054484000000
H      5.347980000000     4.101890000000     5.271080000000    -0.025014000000    -0.336372000000     0.397993000000
C      5.136630000000     4.691380000000     4.392950000000    -0.566395000000     1.175748000000    -0.290661000000
5
Properties=species:S:1:pos:R:3:forces:R:3 energy=-23.976430330000 pbc="F F F"
H      5.480780000000     4.076890000000     3.539570000000     0.166033000000    -0.272794000000    -0.536021000000
H      4.072850000000     4.841430000000     4.351940000000     0.317433000000    -0.009238000000     0.009428000000
H      5.711910000000     5.687150000000     4.356750000000    -0.514798000000    -0.932784000000     0.018756000000
H      5.442190000000     4.128940000000     5.268110000000    -0.025986000000     0.121643000000     0.030303000000
C      5.165630000000     4.704620000000     4.361400000000     0.057454000000     1.093191000000     0.477242000000
5
Properties=species:S:1:pos:R:3:forces:R:3 energy=-23.978670110000 pbc="F F F"
H      5.465330000000     4.073680000000     3.494790000000     0.052878000000     0.343388000000     0.379465000000
H      4.081240000000     4.840120000000     4.344390000000     0.219679000000     0.163172000000    -0.024997000000
H      5.678210000000     5.647680000000     4.366350000000     0.480213000000     0.807121000000    -0.044163000000
H      5.432820000000     4.119930000000     5.273050000000     0.088932000000     0.227181000000    -0.325715000000
C      5.169800000000     4.709030000000     4.364550000000    -0.841208000000    -1.540051000000     0.014934000000
5
Properties=species:S:1:pos:R:3:forces:R:3 energy=-23.951423610000 pbc="F F F"
H      5.452090000000     4.083690000000     3.465120000000    -0.084299000000     0.487879000000     0.668344000000
H      4.097960000000     4.845080000000     4.335970000000    -0.351819000000     0.209105000000    -0.184963000000
H      5.663340000000     5.639660000000     4.374140000000     0.770093000000     1.303813000000    -0.040553000000
H      5.426980000000     4.119740000000     5.265430000000     0.224947000000     0.138278000000    -0.282065000000
C      5.171240000000     4.708470000000     4.367700000000    -0.558834000000    -2.138876000000    -0.160595000000
5
Properties=species:S:1:pos:R:3:forces:R:3 energy=-23.993523480000 pbc="F F F"
H      5.435860000000     4.112200000000     3.461520000000    -0.054889000000     0.190330000000     0.395578000000
H      4.100930000000     4.857970000000     4.320620000000    -0.604734000000     0.105144000000    -0.012994000000
H      5.678200000000     5.681670000000     4.380250000000    -0.171924000000    -0.403266000000     0.040064000000
H      5.429840000000     4.124840000000     5.247140000000     0.186101000000    -0.274844000000     0.394480000000
C      5.170870000000     4.701100000000     4.370300000000     0.647312000000     0.382681000000    -0.818120000000
5
Properties=species:S:1:pos:R:3:forces:R:3 energy=-23.966671870000 pbc="F F F"
H      5.417880000000     4.147340000000     3.473110000000     0.433658000000    -0.257045000000    -0.463853000000
H      4.080750000000     4.874570000000     4.305110000000     0.253758000000    -0.029481000000     0.332967000000
H      5.686150000000     5.707350000000     4.387760000000    -0.416596000000    -1.054398000000    -0.045226000000
H      5.439740000000     4.119340000000     5.244310000000     0.035357000000    -0.229915000000     0.443218000000
C      5.172560000000     4.695110000000     4.370230000000    -0.306487000000     1.571297000000    -0.266326000000
5
Properties=species:S:1:pos:R:3:forces:R:3 energy=-23.969337330000 pbc="F F F"
H      5.416910000000     4.171710000000     3.466710000000     0.492612000000    -0.465709000000    -0.680206000000
H      4.070790000000     4.889590000000     4.302710000000     0.617567000000    -0.185024000000     0.398278000000
H      5.678040000000     5.692190000000     4.393330000000    -0.177767000000    -0.638015000000    -0.017582000000
H      5.450710000000     4.105240000000     5.258430000000    -0.194660000000     0.116268000000    -0.178139000000
C      5.173230000000     4.694270000000     4.369330000000    -0.737895000000     1.172440000000     0.478298000000
5
Properties=species:S:1:pos:R:3:forces:R:3 energy=-23.984460560000 pbc="F F F"
H      5.434720000000     4.177670000000     3.434610000000    -0.053688000000    -0.250645000000     0.272410000000
H      4.084620000000     4.897150000000     4.315530000000     0.084515000000    -0.083612000000     0.106918000000
H      5.663380000000     5.653170000000     4.398070000000     0.219862000000     0.588395000000     0.196247000000
H      5.453960000000     4.095970000000     5.265370000000    -0.199754000000     0.215815000000    -0.634904000000
C      5.171550000000     4.697170000000     4.369960000000    -0.051517000000    -0.469845000000     0.059588000000
5
Properties=species:S:1:pos:R:3:forces:R:3 energy=-23.961659250000 pbc="F F F"
H      5.449950000000     4.173930000000     3.413830000000    -0.338958000000     0.076381000000     0.758138000000
H      4.101240000000     4.901300000000     4.332030000000    -0.448496000000    -0.157554000000    -0.089702000000
H      5.657520000000     5.637690000000     4.410130000000     0.614182000000     1.030811000000     0.212761000000
H      5.449530000000     4.095170000000     5.247970000000    -0.035753000000    -0.025774000000    -0.276552000000
C      5.169750000000     4.698490000000     4.370760000000     0.208781000000    -0.923693000000    -0.604257000000
5
Properties=species:S:1:pos:R:3:forces:R:3 energy=-23.988685640000 pbc="F F F"
H      5.451850000000     4.173200000000     3.422480000000    -0.274527000000     0.187270000000     0.628034000000
H      4.100330000000     4.899340000000     4.344630000000    -0.426695000000    -0.049411000000    -0.037060000000
H      5.675200000000     5.661870000000     4.429930000000     0.091304000000     0.095347000000     0.129744000000
H      5.443860000000     4.093420000000     5.220550000000     0.149487000000    -0.357515000000     0.437052000000
C      5.168670000000     4.696840000000     4.369620000000     0.460428000000     0.124148000000    -1.158463000000
5
Properties=species:S:1:pos:R:3:forces:R:3 energy=-23.989502220000 pbc="F F F"
H      5.443250000000     4.179610000000     3.454770000000     0.177444000000    -0.087557000000    -0.469331000000
H      4.083210000000     4.895560000000     4.355460000000     0.190442000000    -0.112043000000     0.063907000000
H      5.695830000000     5.688960000000     4.454090000000    -0.322194000000    -0.810992000000    -0.168731000000
H      5.444040000000     4.078130000000     5.210560000000     0.024972000000    -0.215558000000     0.422771000000
C      5.169080000000     4.695640000000     4.364860000000    -0.070623000000     1.225681000000     0.151009000000
5
Properties=species:S:1:pos:R:3:forces:R:3 energy=-23.968261490000 pbc="F F F"
H      5.449630000000     3.955070000000     3.527000000000    -0.211500000000     0.027807000000    -0.191075000000
H      3.960360000000     4.705010000000     4.339210000000     1.267435000000    -0.095046000000    -0.035420000000
H      5.621470000000     5.518190000000     4.342530000000    -0.070838000000     0.346445000000    -0.006152000000
H      5.384790000000     4.015660000000     5.264390000000    -0.175150000000     0.096758000000     0.085135000000
C      5.088280000000     4.571210000000     4.360010000000    -0.813387000000    -0.369469000000     0.145188000000
5
Properties=species:S:1:pos:R:3:forces:R:3 energy=-23.993923090000 pbc="F F F"
H      5.370580000000     3.981810000000     3.469040000000    -0.093394000000     0.194798000000     0.078895000000
H      4.013610000000     4.709770000000     4.307900000000    -0.187343000000    -0.019870000000    -0.136669000000
H      5.567510000000     5.556360000000     4.359380000000     0.219865000000    -0.084984000000     0.218082000000
H      5.344260000000     3.972700000000     5.249350000000     0.232807000000     0.293527000000     0.107662000000
C      5.098290000000     4.568990000000     4.367300000000    -0.172254000000    -0.384687000000    -0.267406000000
5
Properties=species:S:1:pos:R:3:forces:R:3 energy=-23.942267990000 pbc="F F F"
H      5.345220000000     3.998060000000     3.451500000000     0.306363000000     0.218177000000     0.243303000000
H      3.965080000000     4.716670000000     4.291540000000     1.360750000000    -0.157959000000     0.378254000000
H      5.558840000000     5.553810000000     4.374770000000     0.327296000000     0.156262000000     0.022741000000
H      5.342010000000     3.975220000000     5.247760000000     0.103358000000    -0.051655000000     0.292359000000
C      5.105350000000     4.567060000000     4.368970000000    -2.097690000000    -0.165373000000    -0.936264000000
5
Properties=species:S:1:pos:R:3:forces:R:3 energy=-23.948192570000 pbc="F F F"
H      5.332610000000     4.021760000000     3.443960000000     0.458041000000    -0.019038000000     0.038971000000
H      3.970130000000     4.717290000000     4.290210000000     1.240715000000    -0.125554000000     0.420237000000
H      5.562910000000     5.557260000000     4.390290000000     0.209892000000    -0.032050000000    -0.016583000000
H      5.343770000000     3.975680000000     5.257260000000     0.045693000000    -0.006351000000     0.009403000000
C      5.105500000000     4.564710000000     4.367620000000    -1.954175000000     0.182311000000    -0.452210000000
5
Properties=species:S:1:pos:R:3:forces:R:3 energy=-23.982205290000 pbc="F F F"
H      5.337860000000     4.043610000000     3.438250000000     0.345233000000    -0.345285000000    -0.129556000000
H      4.021680000000     4.713160000000     4.304780000000    -0.532414000000     0.182642000000     0.134988000000
H      5.574700000000     5.559350000000     4.404450000000    -0.214259000000    -0.361961000000    -0.073204000000
H      5.347160000000     3.975880000000     5.266670000000    -0.043249000000     0.016519000000    -0.502677000000
C      5.099500000000     4.563050000000     4.364930000000     0.444839000000     0.508130000000     0.570338000000
5
Properties=species:S:1:pos:R:3:forces:R:3 energy=-23.991194390000 pbc="F F F"
H      5.381390000000     4.056030000000     3.422260000000    -0.198292000000     0.211292000000     0.192426000000
H      4.018390000000     4.726120000000     4.343450000000    -0.449947000000    -0.138690000000    -0.149895000000
H      5.584850000000     5.532090000000     4.423750000000     0.321700000000     0.201960000000     0.018364000000
H      5.352400000000     3.976340000000     5.239820000000     0.070805000000    -0.043474000000     0.200885000000
C      5.094870000000     4.563160000000     4.363670000000     0.256149000000    -0.230262000000    -0.261998000000
5
Properties=species:S:1:pos:R:3:forces:R:3 energy=-23.942010700000 pbc="F F F"
H      5.341290000000     3.955420000000     3.675370000000    -0.590617000000     0.432922000000     0.779950000000
H      3.838790000000     4.718180000000     4.524560000000     1.092843000000    -0.065192000000    -0.120905000000
H      5.502130000000     5.507080000000     4.535200000000     0.024854000000     0.703982000000    -0.006621000000
H      5.231270000000     4.051460000000     5.485110000000    -0.163939000000     0.045979000000    -0.332185000000
C      4.960860000000     4.575570000000     4.539590000000    -0.363133000000    -1.117635000000    -0.320415000000
5
Properties=species:S:1:pos:R:3:forces:R:3 energy=-23.970483840000 pbc="F F F"
H      5.308700000000     3.981540000000     3.713530000000    -0.096228000000    -0.474797000000    -0.718303000000
H      3.872850000000     4.698510000000     4.547020000000     0.006231000000     0.065876000000    -0.305993000000
H      5.514810000000     5.540080000000     4.521780000000    -0.446318000000    -0.433292000000     0.187599000000
H      5.212950000000     4.053950000000     5.462440000000     0.223828000000    -0.054913000000     0.423382000000
C      4.961210000000     4.572080000000     4.537550000000     0.312471000000     0.897169000000     0.413506000000
5
Properties=species:S:1:pos:R:3:forces:R:3 energy=-23.910704200000 pbc="F F F"
H      5.273070000000     3.989000000000     3.723480000000     0.247417000000    -0.942110000000    -1.462019000000
H      3.906480000000     4.681740000000     4.557340000000    -1.215445000000     0.206273000000    -0.324620000000
H      5.510180000000     5.555870000000     4.515780000000    -0.475516000000    -0.823232000000     0.262165000000
H      5.203530000000     4.054290000000     5.456410000000     0.450726000000    -0.076815000000     0.689692000000
C      4.962540000000     4.571510000000     4.536860000000     0.993015000000     1.636120000000     0.834918000000
5
Properties=species:S:1:pos:R:3:forces:R:3 energy=-23.990723300000 pbc="F F F"
H      5.247870000000     3.960410000000     3.677530000000     0.113388000000     0.018183000000     0.011335000000
H      3.892900000000     4.673300000000     4.555010000000    -0.638375000000     0.390206000000    -0.168901000000
H      5.487590000000     5.539890000000     4.519940000000    -0.139418000000     0.040016000000    -0.059171000000
H      5.211540000000     4.051700000000     5.476780000000     0.238859000000     0.004920000000    -0.142665000000
C      4.966980000000     4.576140000000     4.538840000000     0.425919000000    -0.453403000000     0.359241000000
5
Properties=species:S:1:pos:R:3:forces:R:3 energy=-23.936290730000 pbc="F F F"
H      5.227980000000     3.933660000000     3.633860000000    -0.091974000000     0.826100000000     1.074733000000
H      3.855740000000     4.679950000000     4.546390000000     0.640240000000     0.175919000000    -0.052023000000
H      5.460650000000     5.526070000000     4.521680000000     0.421478000000     0.918251000000    -0.190368000000
H      5.228250000000     4.049400000000     5.490940000000     0.012860000000     0.208565000000    -0.583543000000
C      4.972590000000     4.579150000000     4.541870000000    -0.983083000000    -2.128881000000    -0.248840000000
5
Properties=species:S:1:pos:R:3:forces:R:3 energy=-23.950631880000 pbc="F F F"
H      5.205700000000     3.939380000000     3.632900000000     0.099285000000     0.671187000000     0.950494000000
H      3.844610000000     4.692860000000     4.536280000000     1.049225000000     0.073430000000     0.092250000000
H      5.450970000000     5.547480000000     4.516190000000     0.203566000000     0.332997000000    -0.188019000000
H      5.244550000000     4.055060000000     5.482420000000     0.035046000000     0.033723000000    -0.358307000000
C      4.974820000000     4.575350000000     4.543960000000    -1.387398000000    -1.111644000000    -0.496376000000
5
Properties=species:S:1:pos:R:3:forces:R:3 energy=-23.984014930000 pbc="F F F"
H      5.188440000000     3.969900000000     3.667600000000     0.367972000000    -0.310699000000    -0.278304000000
H      3.873440000000     4.707750000000     4.530220000000     0.129839000000     0.186594000000     0.095366000000
H      5.449500000000     5.580100000000     4.503970000000    -0.403775000000    -0.673565000000    -0.101727000000
H      5.261200000000     4.061650000000     5.460980000000     0.119914000000    -0.269511000000     0.053117000000
C      4.972590000000     4.568300000000     4.544380000000    -0.214581000000     1.067517000000     0.231451000000
5
Properties=species:S:1:pos:R:3:forces:R:3 energy=-23.985232860000 pbc="F F F"
H      5.207360000000     3.974720000000     3.665480000000     0.096250000000    -0.099088000000    -0.146431000000
H      3.905760000000     4.748290000000     4.537010000000    -0.825251000000    -0.123624000000     0.198026000000
H      5.415670000000     5.561350000000     4.474030000000     0.349225000000     0.062191000000     0.117088000000
H      5.304300000000     4.044380000000     5.446360000000    -0.055354000000     0.100602000000     0.122998000000
C      4.967550000000     4.567530000000     4.547700000000     0.436804000000     0.059127000000    -0.291899000000
5
Properties=species:S:1:pos:R:3:forces:R:3 energy=-23.957629940000 pbc="F F F"
H      5.230470000000     3.960020000000     3.637960000000    -0.426724000000     0.384259000000     0.722010000000
H      3.875800000000     4.761830000000     4.552510000000     0.177737000000    -0.438981000000     0.002957000000
H      5.412610000000     5.541570000000     4.464790000000     0.629501000000     0.658435000000     0.205780000000
H      5.323500000000     4.035840000000     5.454000000000    -0.185700000000     0.367189000000    -0.309261000000
C      4.966780000000     4.569980000000     4.548830000000    -0.194986000000    -0.971044000000    -0.621216000000
5
Properties=species:S:1:pos:R:3:forces:R:3 energy=-23.965964600000 pbc="F F F"
H      5.307360000000     4.108410000000     3.549710000000    -0.030740000000     0.299343000000     0.256800000000
H      3.915260000000     4.895840000000     4.367350000000    -0.595643000000     0.253831000000    -0.125069000000
H      5.538650000000     5.714560000000     4.377620000000    -0.264665000000    -0.297390000000    -0.162894000000
H      5.212210000000     4.235030000000     5.293620000000     0.314344000000    -0.600407000000     0.865401000000
C      4.980610000000     4.762250000000     4.390210000000     0.576724000000     0.344395000000    -0.834815000000
5
Properties=species:S:1:pos:R:3:forces:R:3 energy=-23.982473600000 pbc="F F F"
H      5.321260000000     4.138810000000     3.535360000000    -0.287297000000     0.152240000000     0.378599000000
H      3.881570000000     4.904490000000     4.376440000000     0.422017000000     0.180252000000    -0.115608000000
H      5.548800000000     5.703650000000     4.371190000000    -0.379875000000    -0.004678000000     0.096314000000
H      5.220120000000     4.208920000000     5.326110000000    -0.011946000000     0.154144000000    -0.314416000000
C      4.980760000000     4.762080000000     4.388480000000     0.256545000000    -0.481835000000    -0.045564000000
5
Properties=species:S:1:pos:R:3:forces:R:3 energy=-23.946768360000 pbc="F F F"
H      5.324010000000     4.174800000000     3.535680000000    -0.258365000000    -0.362803000000    -0.054422000000
H      3.864390000000     4.920010000000     4.381010000000     0.920657000000    -0.030782000000    -0.072871000000
H      5.544270000000     5.692650000000     4.368520000000    -0.246493000000     0.281924000000     0.288373000000
H      5.227520000000     4.188960000000     5.346240000000    -0.225851000000     0.524231000000    -0.906158000000
C      4.981720000000     4.760370000000     4.386610000000    -0.190387000000    -0.413093000000     0.744220000000
5
Properties=species:S:1:pos:R:3:forces:R:3 energy=-23.967012770000 pbc="F F F"
H      5.316810000000     4.196460000000     3.533910000000    -0.058458000000    -0.649077000000    -0.474907000000
H      3.882730000000     4.934160000000     4.382730000000     0.474715000000    -0.056017000000    -0.090244000000
H      5.530330000000     5.692590000000     4.376950000000    -0.079403000000     0.397438000000     0.214827000000
H      5.226160000000     4.189340000000     5.331370000000    -0.166737000000     0.307602000000    -0.684427000000
C      4.982070000000     4.757360000000     4.387160000000    -0.170600000000    -0.000331000000     1.034191000000
5
Properties=species:S:1:pos:R:3:forces:R:3 energy=-23.952959400000 pbc="F F F"
H      5.302060000000     4.182640000000     3.489520000000    -0.201693000000     0.401023000000     0.471089000000
H      3.934200000000     4.966090000000     4.376530000000    -0.940659000000     0.008695000000    -0.073141000000
H      5.495990000000     5.733960000000     4.403710000000     0.074128000000    -0.315848000000    -0.015956000000
H      5.214410000000     4.197570000000     5.258760000000     0.382840000000    -0.789696000000     1.351226000000
C      4.982840000000     4.751720000000     4.395180000000     0.685324000000     0.697060000000    -1.733248000000
5
Properties=species:S:1:pos:R:3:forces:R:3 energy=-23.990378820000 pbc="F F F"
H      5.289130000000     4.187850000000     3.483680000000    -0.185976000000     0.372874000000     0.401873000000
H      3.913100000000     4.985970000000     4.369410000000    -0.093588000000    -0.281362000000    -0.018283000000
H      5.481760000000     5.747430000000     4.413020000000     0.111542000000    -0.504450000000     0.035086000000
H      5.225090000000     4.163640000000     5.279410000000     0.039413000000     0.024730000000     0.211664000000
C      4.985970000000     4.751340000000     4.393770000000     0.133610000000     0.370869000000    -0.634864000000
5
Properties=species:S:1:pos:R:3:forces:R:3 energy=-23.957058990000 pbc="F F F"
H      5.269510000000     4.207120000000     3.493310000000     0.035879000000     0.058654000000    -0.282642000000
H      3.889060000000     4.994590000000     4.361830000000     0.579349000000    -0.349995000000     0.072484000000
H      5.472180000000     5.741350000000     4.423390000000     0.198611000000    -0.111564000000    -0.016709000000
H      5.236940000000     4.131720000000     5.307490000000    -0.397712000000     0.875294000000    -0.968565000000
C      4.989420000000     4.752180000000     4.390400000000    -0.420271000000    -0.467681000000     1.194972000000
5
Properties=species:S:1:pos:R:3:forces:R:3 energy=-23.949282780000 pbc="F F F"
H      5.474370000000     4.114120000000     3.614830000000    -0.212120000000     0.383269000000     0.657143000000
H      3.988550000000     4.901520000000     4.445590000000     1.341394000000    -0.057507000000     0.046746000000
H      5.655920000000     5.732590000000     4.458110000000    -0.528754000000    -0.541407000000    -0.133862000000
H      5.397590000000     4.212060000000     5.391060000000    -0.119853000000    -0.108534000000    -0.230475000000
C      5.113480000000     4.758520000000     4.465320000000    -0.480763000000     0.323908000000    -0.339973000000
5
Properties=species:S:1:pos:R:3:forces:R:3 energy=-23.991545200000 pbc="F F F"
H      5.453200000000     4.139790000000     3.632090000000    -0.103711000000     0.056748000000    -0.376794000000
H      4.040380000000     4.904590000000     4.464140000000    -0.402655000000     0.076158000000    -0.199530000000
H      5.637770000000     5.707120000000     4.479480000000     0.176664000000     0.408396000000    -0.080368000000
H      5.380700000000     4.190760000000     5.377850000000    -0.097810000000     0.290727000000    -0.171502000000
C      5.113850000000     4.760020000000     4.461660000000     0.427912000000    -0.832057000000     0.828376000000
5
Properties=species:S:1:pos:R:3:forces:R:3 energy=-23.933698040000 pbc="F F F"
H      5.428450000000     4.167160000000     3.634610000000     0.235511000000    -0.453618000000    -1.090077000000
H      4.075850000000     4.910510000000     4.474720000000    -1.665686000000     0.257873000000    -0.220052000000
H      5.626720000000     5.697730000000     4.497370000000     0.484098000000     0.772340000000    -0.059440000000
H      5.360380000000     4.180970000000     5.358330000000     0.122011000000     0.029242000000     0.212700000000
C      5.115570000000     4.758850000000     4.460700000000     0.824024000000    -0.606059000000     1.157218000000
5
Properties=species:S:1:pos:R:3:forces:R:3 energy=-23.968745170000 pbc="F F F"
H      5.409890000000     4.183270000000     3.550200000000    -0.182785000000     0.420342000000     0.465845000000
H      4.002140000000     4.946610000000     4.485110000000     1.105314000000    -0.186499000000    -0.251964000000
H      5.639800000000     5.738000000000     4.516740000000    -0.099172000000    -0.523013000000    -0.038267000000
H      5.330170000000     4.144880000000     5.356330000000     0.230205000000     0.093641000000    -0.033436000000
C      5.124680000000     4.754150000000     4.465420000000    -1.053923000000     0.194498000000    -0.141206000000
5
Properties=species:S:1:pos:R:3:forces:R:3 energy=-23.952073280000 pbc="F F F"
H      5.399720000000     4.205490000000     3.524700000000    -0.200647000000     0.422352000000     0.728493000000
H      4.001250000000     4.959070000000     4.483690000000     1.195310000000    -0.234761000000    -0.215009000000
H      5.641190000000     5.737300000000     4.519330000000    -0.072466000000    -0.545386000000     0.038661000000
H      5.324490000000     4.122170000000     5.363470000000     0.182018000000     0.357109000000    -0.467031000000
C      5.125950000000     4.753210000000     4.466850000000    -1.104581000000     0.000946000000    -0.084822000000
5
Properties=species:S:1:pos:R:3:forces:R:3 energy=-23.996303270000 pbc="F F F"
H      5.382620000000     4.242270000000     3.527980000000     0.067939000000     0.013787000000     0.406601000000
H      4.045210000000     4.962010000000     4.474290000000    -0.205994000000     0.122811000000     0.142155000000
H      5.639790000000     5.716200000000     4.523220000000    -0.030437000000     0.018950000000     0.061524000000
H      5.325970000000     4.114160000000     5.352690000000    -0.028561000000     0.149235000000    -0.374749000000
C      5.123710000000     4.752330000000     4.467940000000     0.197460000000    -0.304829000000    -0.235823000000
5
Properties=species:S:1:pos:R:3:forces:R:3 energy=-23.956491890000 pbc="F F F"
H      5.369160000000     4.277200000000     3.546230000000     0.468839000000    -0.562888000000    -0.663731000000
H      4.078650000000     4.969340000000     4.470800000000    -1.301921000000     0.394231000000     0.253191000000
H      5.637340000000     5.697160000000     4.529160000000     0.226086000000     0.576370000000     0.015601000000
H      5.326280000000     4.112230000000     5.328600000000     0.000724000000    -0.194303000000    -0.005705000000
C      5.122230000000     4.750560000000     4.468220000000     0.605790000000    -0.213005000000     0.400429000000
5
Properties=species:S:1:pos:R:3:forces:R:3 energy=-23.978310510000 pbc="F F F"
H      5.374090000000     4.288760000000     3.538490000000     0.238085000000    -0.562379000000    -0.750478000000
H      4.061290000000     4.990870000000     4.476990000000    -0.390809000000    -0.020324000000    -0.039536000000
H      5.643480000000     5.700900000000     4.535270000000     0.334397000000     0.194730000000     0.218564000000
H      5.326600000000     4.103190000000     5.305950000000     0.322569000000    -0.369884000000     0.490810000000
C      5.122720000000     4.748240000000     4.469720000000    -0.503549000000     0.758132000000     0.079658000000
5
Properties=species:S:1:pos:R:3:forces:R:3 energy=-23.990198280000 pbc="F F F"
H      5.387550000000     4.278570000000     3.503320000000    -0.033464000000     0.148240000000     0.590124000000
H      4.030540000000     5.010170000000     4.481280000000     0.621577000000    -0.136585000000     0.160944000000
H      5.661670000000     5.711650000000     4.549110000000    -0.066032000000    -0.169827000000     0.116772000000
H      5.338920000000     4.080990000000     5.303140000000     0.062833000000    -0.110043000000     0.190481000000
C      5.121620000000     4.748440000000     4.471370000000    -0.583962000000     0.268965000000    -1.058799000000
5
Properties=species:S:1:pos:R:3:forces:R:3 energy=-23.990978290000 pbc="F F F"
H      5.292370000000     3.840700000000     3.543200000000    -0.077312000000     0.010216000000    -0.134539000000
H      3.840070000000     4.590260000000     4.344710000000    -0.448431000000     0.067397000000    -0.122528000000
H      5.429040000000     5.446460000000     4.349670000000    -0.361877000000    -0.399009000000    -0.194648000000
H      5.170970000000     3.937580000000     5.276150000000     0.007672000000    -0.360951000000     0.401398000000
C      4.915550000000     4.466780000000     4.363090000000     0.880321000000     0.682352000000     0.050381000000
5
Properties=species:S:1:pos:R:3:forces:R:3 energy=-23.983770130000 pbc="F F F"
H      5.278670000000     3.815400000000     3.527610000000    -0.296171000000     0.579124000000     0.376784000000
H      3.855350000000     4.590160000000     4.338030000000    -0.893390000000     0.070517000000    -0.232398000000
H      5.398610000000     5.453930000000     4.339820000000     0.112198000000    -0.097031000000    -0.019926000000
H      5.158620000000     3.934440000000     5.297500000000     0.111981000000     0.204040000000    -0.001636000000
C      4.918980000000     4.468530000000     4.363990000000     0.965427000000    -0.757577000000    -0.123122000000
5
Properties=species:S:1:pos:R:3:forces:R:3 energy=-23.979919990000 pbc="F F F"
H      5.230560000000     3.831620000000     3.540690000000     0.297095000000    -0.172649000000    -0.399843000000
H      3.814380000000     4.594110000000     4.311900000000     0.701407000000    -0.130173000000    -0.013056000000
H      5.360130000000     5.466440000000     4.314110000000     0.319168000000    -0.009680000000     0.023037000000
H      5.139460000000     3.955230000000     5.328840000000     0.134731000000     0.312771000000    -0.348318000000
C      4.931200000000     4.464080000000     4.364600000000    -1.452485000000    -0.000811000000     0.739088000000
5
Properties=species:S:1:pos:R:3:forces:R:3 energy=-23.974893840000 pbc="F F F"
H      5.219170000000     3.844050000000     3.539360000000     0.468703000000    -0.463640000000    -0.586762000000
H      3.819720000000     4.590430000000     4.300970000000     0.582679000000    -0.087219000000     0.045592000000
H      5.360120000000     5.474790000000     4.300010000000     0.165180000000    -0.319322000000     0.064859000000
H      5.133580000000     3.983200000000     5.325420000000     0.286632000000    -0.047382000000     0.142944000000
C      4.932190000000     4.460330000000     4.367090000000    -1.503240000000     0.917726000000     0.334000000000
5
Properties=species:S:1:pos:R:3:forces:R:3 energy=-23.983365060000 pbc="F F F"
H      5.225890000000     3.838550000000     3.515440000000     0.084441000000    -0.137433000000     0.285588000000
H      3.847460000000     4.583410000000     4.291860000000    -0.532283000000     0.101502000000    -0.029965000000
H      5.366470000000     5.470810000000     4.288470000000    -0.137241000000    -0.371953000000     0.146658000000
H      5.138770000000     4.009210000000     5.327510000000     0.293098000000    -0.359853000000     0.380740000000
C      4.928360000000     4.459540000000     4.370620000000     0.292162000000     0.767859000000    -0.782505000000
5
Properties=species:S:1:pos:R:3:forces:R:3 energy=-23.977686870000 pbc="F F F"
H      5.235830000000     3.827790000000     3.502610000000    -0.068024000000     0.196057000000     0.600021000000
H      3.854590000000     4.580330000000     4.281620000000    -0.763174000000    -0.116375000000    -0.007283000000
H      5.367500000000     5.452520000000     4.282620000000     0.227787000000    -0.009334000000     0.022268000000
H      5.155230000000     4.021250000000     5.344260000000     0.089130000000    -0.186575000000    -0.041920000000
C      4.925490000000     4.461210000000     4.371630000000     0.514617000000     0.116507000000    -0.572989000000
5
Properties=species:S:1:pos:R:3:forces:R:3 energy=-23.974395960000 pbc="F F F"
H      5.443170000000     4.085830000000     3.612000000000    -0.299249000000     0.141614000000    -0.199658000000
H      3.970710000000     4.831000000000     4.429250000000     0.476280000000     0.063911000000    -0.253284000000
H      5.594790000000     5.659470000000     4.408490000000     0.203171000000     0.738811000000     0.036284000000
H      5.343960000000     4.158580000000     5.353220000000    -0.074941000000     0.408793000000    -0.200232000000
C      5.074820000000     4.720650000000     4.430150000000    -0.305603000000    -1.353057000000     0.617123000000
5
Properties=species:S:1:pos:R:3:forces:R:3 energy=-23.958041390000 pbc="F F F"
H      5.438150000000     4.099930000000     3.622870000000    -0.081493000000    -0.192277000000    -0.620545000000
H      4.009990000000     4.810600000000     4.430520000000    -0.947184000000     0.190920000000    -0.259231000000
H      5.567590000000     5.665290000000     4.391620000000     0.372116000000     0.931037000000     0.102042000000
H      5.344950000000     4.161670000000     5.342960000000     0.078153000000     0.320750000000     0.085446000000
C      5.074150000000     4.720440000000     4.431400000000     0.578436000000    -1.250435000000     0.692815000000
5
Properties=species:S:1:pos:R:3:forces:R:3 energy=-23.979395380000 pbc="F F F"
H      5.430030000000     4.106520000000     3.609800000000    -0.003369000000    -0.144079000000    -0.470708000000
H      4.012520000000     4.797710000000     4.421810000000    -1.050794000000     0.194982000000    -0.187606000000
H      5.554930000000     5.706820000000     4.378820000000    -0.122386000000    -0.182264000000     0.154998000000
H      5.348920000000     4.177040000000     5.336070000000     0.242126000000     0.036673000000     0.493259000000
C      5.075340000000     4.716220000000     4.434850000000     0.934648000000     0.094926000000     0.010518000000
5
Properties=species:S:1:pos:R:3:forces:R:3 energy=-23.980172280000 pbc="F F F"
H      5.421910000000     4.107480000000     3.578900000000     0.184929000000     0.230215000000     0.157332000000
H      3.974760000000     4.792490000000     4.406050000000     0.349683000000     0.211603000000     0.160262000000
H      5.537770000000     5.740750000000     4.372150000000    -0.465334000000    -0.817367000000    -0.109609000000
H      5.362110000000     4.193590000000     5.348180000000     0.040845000000    -0.192156000000     0.251148000000
C      5.079490000000     4.712370000000     4.438280000000    -0.110150000000     0.567276000000    -0.459149000000
5
Properties=species:S:1:pos:R:3:forces:R:3 energy=-23.965801700000 pbc="F F F"
H      5.421040000000     4.117190000000     3.554790000000    -0.224887000000     0.322666000000     0.601207000000
H      3.951310000000     4.795460000000     4.396810000000     0.969808000000    -0.065451000000     0.093589000000
H      5.503340000000     5.742650000000     4.361470000000    -0.218296000000    -0.582916000000     0.233369000000
H      5.376510000000     4.202390000000     5.369540000000    -0.002677000000     0.183275000000    -0.080799000000
C      5.083180000000     4.710430000000     4.440170000000    -0.523893000000     0.141884000000    -0.846919000000
5
Properties=species:S:1:pos:R:3:forces:R:3 energy=-23.981090430000 pbc="F F F"
H      5.411680000000     4.138810000000     3.554320000000    -0.158915000000    -0.026506000000     0.362495000000
H      3.965450000000     4.795850000000     4.391430000000     0.481211000000    -0.126692000000     0.093346000000
H      5.461820000000     5.722380000000     4.360020000000     0.168402000000     0.400677000000     0.247258000000
H      5.390320000000     4.217840000000     5.387100000000    -0.146257000000     0.297217000000    -0.463427000000
C      5.085090000000     4.709000000000     4.439310000000    -0.344619000000    -0.544285000000    -0.239678000000
5
Properties=species:S:1:pos:R:3:forces:R:3 energy=-23.979146500000 pbc="F F F"
H      5.417100000000     4.141300000000     3.546520000000     0.132125000000     0.102709000000     0.409788000000
H      3.996200000000     4.759750000000     4.406550000000    -0.370340000000    -0.128503000000     0.123801000000
H      5.424280000000     5.770240000000     4.384650000000    -0.009349000000    -0.687986000000    -0.058705000000
H      5.418150000000     4.280930000000     5.375490000000     0.189984000000    -0.370940000000     0.268267000000
C      5.082890000000     4.702560000000     4.437620000000     0.057571000000     1.084728000000    -0.743179000000
5
Properties=species:S:1:pos:R:3:forces:R:3 energy=-23.987554830000 pbc="F F F"
H      5.441610000000     3.959710000000     3.552920000000     0.203116000000    -0.178280000000    -0.214351000000
H      4.000830000000     4.715710000000     4.364270000000     0.579941000000     0.106117000000     0.143017000000
H      5.657700000000     5.532500000000     4.374030000000    -0.507457000000    -0.417216000000    -0.136877000000
H      5.359920000000     4.008210000000     5.299200000000    -0.133062000000    -0.166986000000     0.034545000000
C      5.101010000000     4.570070000000     4.388690000000    -0.142378000000     0.656606000000     0.173172000000
5
Properties=species:S:1:pos:R:3:forces:R:3 energy=-23.993068600000 pbc="F F F"
H      5.447250000000     3.969230000000     3.535670000000    -0.206212000000    -0.014278000000     0.009876000000
H      4.003770000000     4.734070000000     4.360560000000     0.506325000000    -0.076436000000    -0.061430000000
H      5.626570000000     5.517250000000     4.350690000000     0.140969000000     0.424415000000     0.162667000000
H      5.361310000000     3.998860000000     5.317970000000    -0.128973000000     0.438010000000    -0.465461000000
C      5.102770000000     4.569800000000     4.390820000000    -0.312316000000    -0.771260000000     0.354108000000
5
Properties=species:S:1:pos:R:3:forces:R:3 energy=-23.990025850000 pbc="F F F"
H      5.444920000000     3.978180000000     3.518840000000    -0.285601000000     0.065823000000     0.257037000000
H      4.026230000000     4.749450000000     4.354490000000    -0.122609000000    -0.147953000000    -0.058868000000
H      5.600940000000     5.518400000000     4.333660000000     0.450167000000     0.650063000000     0.240567000000
H      5.357730000000     4.006430000000     5.318760000000    -0.042922000000     0.368274000000    -0.326802000000
C      5.103530000000     4.567050000000     4.394080000000     0.000597000000    -0.935778000000    -0.112360000000
5
Properties=species:S:1:pos:R:3:forces:R:3 energy=-23.989762550000 pbc="F F F"
H      5.431590000000     3.989630000000     3.511970000000    -0.156740000000    -0.046802000000     0.198353000000
H      4.043880000000     4.759070000000     4.346180000000    -0.629981000000    -0.132298000000    -0.015353000000
H      5.592730000000     5.544590000000     4.325960000000     0.182490000000    -0.101214000000     0.290491000000
H      5.352510000000     4.028150000000     5.306960000000     0.164985000000    -0.075145000000     0.341051000000
C      5.104280000000     4.561300000000     4.396960000000     0.439456000000     0.354853000000    -0.814800000000
5
Properties=species:S:1:pos:R:3:forces:R:3 energy=-23.976588680000 pbc="F F F"
H      5.412280000000     3.999240000000     3.512760000000     0.070902000000    -0.290188000000    -0.086694000000
H      4.037200000000     4.763570000000     4.337310000000    -0.303588000000    -0.193050000000     0.075544000000
H      5.591590000000     5.566770000000     4.329480000000    -0.073605000000    -0.691886000000     0.271418000000
H      5.353670000000     4.046900000000     5.308340000000     0.233294000000    -0.311767000000     0.601586000000
C      5.106450000000     4.556720000000     4.397230000000     0.073311000000     1.486864000000    -0.861786000000
5
Properties=species:S:1:pos:R:3:forces:R:3 energy=-23.987558620000 pbc="F F F"
H      5.395730000000     3.997640000000     3.510210000000     0.209675000000    -0.368387000000    -0.101589000000
H      4.018820000000     4.760610000000     4.331370000000     0.290679000000    -0.205058000000     0.183203000000
H      5.587620000000     5.562240000000     4.343470000000    -0.053569000000    -0.461529000000     0.150017000000
H      5.363820000000     4.053600000000     5.332920000000     0.020466000000    -0.072988000000    -0.097373000000
C      5.108840000000     4.556920000000     4.394730000000    -0.467436000000     1.107911000000    -0.133541000000
5
Properties=species:S:1:pos:R:3:forces:R:3 energy=-23.981114360000 pbc="F F F"
H      5.387250000000     3.981810000000     3.503740000000     0.076312000000    -0.243350000000     0.206338000000
H      4.011630000000     4.749720000000     4.332490000000     0.351337000000     0.000502000000     0.041200000000
H      5.581560000000     5.539880000000     4.363270000000     0.049230000000     0.383872000000    -0.016576000000
H      5.374770000000     4.057490000000     5.353780000000    -0.147283000000     0.119925000000    -0.890622000000
C      5.109740000000     4.560680000000     4.391790000000    -0.329503000000    -0.261476000000     0.660104000000
5
Properties=species:S:1:pos:R:3:forces:R:3 energy=-23.985866260000 pbc="F F F"
H      5.381690000000     3.956510000000     3.505210000000     0.096461000000     0.100828000000     0.388226000000
H      4.018010000000     4.738810000000     4.335210000000     0.175884000000    -0.017973000000     0.052758000000
H      5.577390000000     5.532270000000     4.382500000000     0.328336000000     0.666600000000    -0.205955000000
H      5.380080000000     4.066030000000     5.340270000000    -0.091337000000    -0.084863000000    -0.505216000000
C      5.109570000000     4.563620000000     4.390960000000    -0.509804000000    -0.664371000000     0.270008000000
5
Properties=species:S:1:pos:R:3:forces:R:3 energy=-23.987586550000 pbc="F F F"
H      5.379840000000     3.934970000000     3.521720000000     0.186334000000     0.352582000000     0.250885000000
H      4.031230000000     4.727150000000     4.339980000000    -0.299647000000    -0.030517000000     0.165705000000
H      5.585900000000     5.550430000000     4.393880000000     0.179161000000    -0.037299000000    -0.311101000000
H      5.381880000000     4.071340000000     5.307140000000     0.049669000000    -0.455135000000     0.576290000000
C      5.107770000000     4.564430000000     4.391000000000    -0.115857000000     0.169866000000    -0.681991000000
5
Properties=species:S:1:pos:R:3:forces:R:3 energy=-23.981732490000 pbc="F F F"
H      5.385180000000     3.926940000000     3.548050000000     0.250818000000     0.184841000000    -0.231849000000
H      4.032930000000     4.714230000000     4.351200000000    -0.472142000000     0.057045000000     0.104652000000
H      5.601410000000     5.567250000000     4.393280000000    -0.160729000000    -0.636094000000    -0.299425000000
H      5.385610000000     4.059060000000     5.296110000000     0.060582000000    -0.345692000000     0.666652000000
C      5.105580000000     4.565800000000     4.388840000000     0.320947000000     0.740186000000    -0.240162000000
5
Properties=species:S:1:pos:R:3:forces:R:3 energy=-23.952422470000 pbc="F F F"
H      5.396160000000     4.116540000000     3.529500000000    -0.347791000000     0.483346000000     0.082596000000
H      3.915560000000     4.893980000000     4.345630000000     1.133889000000    -0.158823000000    -0.043576000000
H      5.568300000000     5.740450000000     4.353850000000    -0.362372000000    -0.620466000000     0.024115000000
H      5.333660000000     4.168900000000     5.277890000000    -0.294307000000     0.586608000000    -0.299047000000
C      5.039870000000     4.755110000000     4.369160000000    -0.129265000000    -0.290587000000     0.235215000000
5
Properties=species:S:1:pos:R:3:forces:R:3 energy=-23.984811910000 pbc="F F F"
H      5.389770000000     4.131790000000     3.524600000000    -0.233359000000     0.368443000000     0.034331000000
H      3.962230000000     4.892690000000     4.324490000000    -0.295544000000    -0.005111000000    -0.002079000000
H      5.548280000000     5.721480000000     4.352920000000     0.100494000000     0.095563000000     0.088897000000
H      5.322920000000     4.157460000000     5.278200000000    -0.285327000000     0.670590000000    -0.384802000000
C      5.039070000000     4.756480000000     4.371380000000     0.713918000000    -1.129078000000     0.263132000000
5
Properties=species:S:1:pos:R:3:forces:R:3 energy=-23.964847520000 pbc="F F F"
H      5.374440000000     4.161140000000     3.521040000000     0.068575000000    -0.040807000000    -0.297945000000
H      3.997260000000     4.891210000000     4.303380000000    -1.508912000000     0.151296000000     0.005189000000
H      5.532230000000     5.706290000000     4.355420000000     0.465948000000     0.694778000000     0.119813000000
H      5.301250000000     4.171880000000     5.263700000000    -0.030224000000     0.168988000000     0.224175000000
C      5.040570000000     4.754220000000     4.374430000000     1.004756000000    -0.974034000000    -0.051506000000
5
Properties=species:S:1:pos:R:3:forces:R:3 energy=-23.977459760000 pbc="F F F"
H      5.361940000000     4.188510000000     3.506120000000     0.130072000000    -0.396901000000    -0.554834000000
H      3.973980000000     4.895560000000     4.282770000000    -0.501126000000     0.090719000000    -0.112737000000
H      5.534260000000     5.717940000000     4.362470000000     0.112670000000     0.280436000000     0.090062000000
H      5.278730000000     4.192590000000     5.258000000000     0.236283000000    -0.354335000000     0.648278000000
C      5.045260000000     4.748880000000     4.377280000000     0.022778000000     0.379133000000    -0.070503000000
5
Properties=species:S:1:pos:R:3:forces:R:3 energy=-23.965475000000 pbc="F F F"
H      5.354690000000     4.200110000000     3.470380000000    -0.052039000000    -0.184796000000     0.234583000000
H      3.932140000000     4.903260000000     4.258340000000     0.817281000000    -0.198354000000     0.210169000000
H      5.540540000000     5.740020000000     4.372800000000    -0.289768000000    -0.552724000000     0.211901000000
H      5.265740000000     4.199300000000     5.277150000000     0.130065000000    -0.444008000000     0.584226000000
C      5.049900000000     4.744880000000     4.379830000000    -0.606017000000     1.380501000000    -1.242581000000
5
Properties=species:S:1:pos:R:3:forces:R:3 energy=-23.936839700000 pbc="F F F"
H      5.345730000000     4.204290000000     3.444810000000     0.187718000000     0.112227000000     0.748056000000
H      3.922750000000     4.903160000000     4.242740000000     1.281074000000    -0.122438000000     0.468707000000
H      5.535610000000     5.740360000000     4.390800000000    -0.075385000000    -0.303529000000     0.058456000000
H      5.258150000000     4.188940000000     5.317780000000    -0.051471000000     0.143854000000    -0.567927000000
C      5.052470000000     4.745380000000     4.378380000000    -1.342677000000     0.169264000000    -0.706645000000
5
Properties=species:S:1:pos:R:3:forces:R:3 energy=-23.959194180000 pbc="F F F"
H      5.344230000000     4.212560000000     3.448540000000     0.311802000000    -0.032454000000     0.532484000000
H      3.962200000000     4.898440000000     4.245490000000     0.138059000000     0.026831000000     0.330193000000
H      5.528030000000     5.729200000000     4.410290000000     0.129213000000     0.041055000000    -0.006517000000
H      5.248910000000     4.184430000000     5.335310000000    -0.118614000000     0.340819000000    -1.060484000000
C      5.050710000000     4.746380000000     4.374750000000    -0.460435000000    -0.376959000000     0.203951000000
5
Properties=species:S:1:pos:R:3:forces:R:3 energy=-23.970855330000 pbc="F F F"
H      5.381220000000     4.217840000000     3.487790000000     0.274254000000    -0.255857000000    -0.384570000000
H      3.988430000000     4.892670000000     4.279060000000    -0.933425000000    -0.046602000000    -0.076462000000
H      5.537640000000     5.715420000000     4.441400000000     0.283774000000     0.035038000000    -0.069218000000
H      5.219040000000     4.201920000000     5.274980000000     0.211421000000    -0.596465000000     0.792961000000
C      5.047140000000     4.746120000000     4.371130000000     0.165154000000     0.864301000000    -0.263606000000
5
Properties=species:S:1:pos:R:3:forces:R:3 energy=-23.986250310000 pbc="F F F"
H      5.416700000000     4.206910000000     3.488050000000    -0.249657000000     0.016146000000     0.026005000000
H      3.937550000000     4.888780000000     4.293640000000     0.582873000000    -0.191434000000    -0.175034000000
H      5.559620000000     5.712340000000     4.450800000000    -0.020002000000    -0.128666000000     0.064167000000
H      5.211340000000     4.187970000000     5.269720000000     0.213425000000    -0.454440000000     0.789008000000
C      5.047230000000     4.748770000000     4.369540000000    -0.525711000000     0.758974000000    -0.704877000000
5
Properties=species:S:1:pos:R:3:forces:R:3 energy=-23.993108540000 pbc="F F F"
H      5.434210000000     4.059980000000     3.528550000000     0.088509000000    -0.138189000000     0.002842000000
H      4.021820000000     4.829620000000     4.341120000000     0.295659000000     0.116716000000     0.011634000000
H      5.666620000000     5.656090000000     4.351710000000    -0.398140000000    -0.451635000000     0.031974000000
H      5.383220000000     4.140190000000     5.273470000000     0.115455000000    -0.147441000000     0.086010000000
C      5.109690000000     4.698110000000     4.360590000000    -0.104079000000     0.621768000000    -0.133198000000
5
Properties=species:S:1:pos:R:3:forces:R:3 energy=-23.988015680000 pbc="F F F"
H      5.431740000000     4.028380000000     3.539190000000    -0.201768000000     0.455272000000    -0.018168000000
H      4.013370000000     4.840730000000     4.346170000000     0.395350000000     0.062510000000    -0.095529000000
H      5.656250000000     5.650520000000     4.333100000000    -0.076319000000     0.003862000000    -0.051756000000
H      5.380310000000     4.135010000000     5.273220000000    -0.097425000000     0.350085000000     0.009428000000
C      5.111700000000     4.700710000000     4.360850000000    -0.018103000000    -0.873052000000     0.156022000000
5
Properties=species:S:1:pos:R:3:forces:R:3 energy=-23.988000500000 pbc="F F F"
H      5.421460000000     4.014290000000     3.549160000000    -0.173236000000     0.442245000000    -0.078050000000
H      4.020170000000     4.854290000000     4.347530000000     0.274797000000     0.002096000000    -0.099565000000
H      5.642890000000     5.645090000000     4.312430000000     0.202517000000     0.278946000000    -0.034322000000
H      5.373630000000     4.143340000000     5.273340000000    -0.010630000000     0.295616000000     0.195681000000
C      5.113660000000     4.700510000000     4.361620000000    -0.293804000000    -1.018460000000     0.016004000000
5
Properties=species:S:1:pos:R:3:forces:R:3 energy=-23.995201420000 pbc="F F F"
H      5.404410000000     4.017230000000     3.556180000000     0.230850000000     0.100587000000    -0.272656000000
H      4.037660000000     4.868010000000     4.345060000000    -0.057527000000    -0.044480000000     0.130310000000
H      5.637290000000     5.650420000000     4.290310000000     0.252325000000    -0.016472000000    -0.112561000000
H      5.366500000000     4.163170000000     5.281040000000     0.029313000000    -0.040162000000     0.405031000000
C      5.114690000000     4.697030000000     4.362440000000    -0.453655000000    -0.001185000000    -0.149886000000
5
Properties=species:S:1:pos:R:3:forces:R:3 energy=-23.998036790000 pbc="F F F"
H      5.396180000000     4.024090000000     3.552680000000     0.263634000000    -0.055346000000    -0.316263000000
H      4.053030000000     4.880120000000     4.347610000000    -0.651124000000     0.068399000000     0.156541000000
H      5.641420000000     5.655160000000     4.263660000000     0.007622000000    -0.294992000000    -0.117078000000
H      5.360450000000     4.181600000000     5.304480000000    -0.111718000000     0.042210000000     0.031020000000
C      5.114250000000     4.693520000000     4.362790000000     0.490327000000     0.240466000000     0.244999000000
5
Properties=species:S:1:pos:R:3:forces:R:3 energy=-24.003150700000 pbc="F F F"
H      5.398100000000     4.028850000000     3.536920000000    -0.084139000000    -0.081708000000     0.032356000000
H      4.043300000000     4.894950000000     4.356240000000    -0.218027000000     0.005444000000    -0.140195000000
H      5.645870000000     5.648500000000     4.232320000000    -0.016430000000    -0.175759000000     0.216341000000
H      5.350040000000     4.201760000000     5.329270000000     0.133694000000     0.222895000000    -0.304438000000
C      5.115400000000     4.690770000000     4.363930000000     0.184302000000     0.030682000000     0.195617000000
5
Properties=species:S:1:pos:R:3:forces:R:3 energy=-23.989175200000 pbc="F F F"
H      5.396780000000     4.030460000000     3.522360000000    -0.077412000000    -0.072307000000     0.501779000000
H      4.025120000000     4.910020000000     4.359480000000     0.493171000000     0.048917000000    -0.074690000000
H      5.649700000000     5.635030000000     4.209260000000    -0.101630000000     0.135381000000     0.187921000000
H      5.344770000000     4.230600000000     5.342360000000     0.177938000000    -0.069292000000    -0.307282000000
C      5.117140000000     4.688100000000     4.365700000000    -0.493250000000    -0.042116000000    -0.306753000000
5
Properties=species:S:1:pos:R:3:forces:R:3 energy=-23.983126830000 pbc="F F F"
H      5.392470000000     4.029280000000     3.527170000000    -0.109225000000    -0.209394000000     0.373979000000
H      4.025970000000     4.926990000000     4.359830000000     0.564470000000    -0.086549000000    -0.126092000000
H      5.649620000000     5.626770000000     4.193430000000     0.003848000000     0.214920000000     0.199800000000
H      5.346370000000     4.256790000000     5.343600000000     0.257478000000    -0.216944000000    -0.034759000000
C      5.117300000000     4.685290000000     4.366490000000    -0.715576000000     0.295741000000    -0.412818000000
5
Properties=species:S:1:pos:R:3:forces:R:3 energy=-23.991747360000 pbc="F F F"
H      5.383920000000     4.020010000000     3.546450000000    -0.098230000000    -0.388792000000    -0.044750000000
H      4.048640000000     4.940690000000     4.355310000000    -0.080463000000    -0.199807000000    -0.143289000000
H      5.649680000000     5.626800000000     4.185260000000     0.129231000000     0.005716000000     0.221732000000
H      5.357920000000     4.274690000000     5.343500000000     0.242900000000    -0.182544000000     0.148631000000
C      5.115160000000     4.683430000000     4.365940000000    -0.193374000000     0.765703000000    -0.182767000000
5
Properties=species:S:1:pos:R:3:forces:R:3 energy=-23.994164480000 pbc="F F F"
H      5.371510000000     3.995630000000     3.564120000000    -0.039027000000    -0.297647000000    -0.127399000000
H      4.068330000000     4.946740000000     4.345210000000    -0.749630000000    -0.081870000000    -0.058729000000
H      5.654740000000     5.627050000000     4.185630000000     0.121931000000    -0.116012000000     0.103508000000
H      5.378950000000     4.285630000000     5.349150000000     0.048614000000    -0.073829000000    -0.047021000000
C      5.112380000000     4.684030000000     4.364810000000     0.618103000000     0.569323000000     0.129180000000
5
Properties=species:S:1:pos:R:3:forces:R:3 energy=-23.955401680000 pbc="F F F"
H      5.538680000000     3.959340000000     3.596030000000    -0.188487000000    -0.183721000000    -0.208652000000
H      4.063180000000     4.705350000000     4.417850000000     1.011893000000     0.054710000000    -0.140593000000
H      5.762720000000     5.524280000000     4.426640000000    -0.755699000000    -0.605326000000     0.101119000000
H      5.424190000000     4.004700000000     5.357290000000    -0.026839000000     0.099776000000    -0.081511000000
C      5.183560000000     4.561870000000     4.431680000000    -0.040819000000     0.634560000000     0.329605000000
5
Properties=species:S:1:pos:R:3:forces:R:3 energy=-23.981815750000 pbc="F F F"
H      5.533150000000     3.968070000000     3.595340000000    -0.062503000000    -0.414150000000    -0.224240000000
H      4.092760000000     4.703810000000     4.413070000000     0.132928000000     0.189174000000    -0.026548000000
H      5.737410000000     5.487930000000     4.425350000000    -0.142031000000     0.642759000000     0.071487000000
H      5.455480000000     3.994290000000     5.348270000000    -0.146388000000     0.010551000000    -0.265672000000
C      5.181060000000     4.565160000000     4.432990000000     0.217829000000    -0.427992000000     0.445080000000
5
Properties=species:S:1:pos:R:3:forces:R:3 energy=-23.943130710000 pbc="F F F"
H      5.525250000000     3.960820000000     3.586040000000    -0.213937000000     0.100752000000    -0.155735000000
H      4.127210000000     4.709560000000     4.407300000000    -1.131116000000     0.150735000000    -0.034540000000
H      5.706840000000     5.476580000000     4.426820000000     0.694738000000     1.497848000000     0.024755000000
H      5.480890000000     3.984360000000     5.329100000000    -0.261928000000     0.288556000000    -0.072873000000
C      5.179280000000     4.567060000000     4.435720000000     0.912081000000    -2.038191000000     0.239207000000
5
Properties=species:S:1:pos:R:3:forces:R:3 energy=-23.983075670000 pbc="F F F"
H      5.426700000000     3.996500000000     3.533360000000     0.362236000000    -0.043499000000    -0.186505000000
H      4.095390000000     4.724120000000     4.406880000000     0.289890000000    -0.210674000000     0.343351000000
H      5.646640000000     5.542740000000     4.449410000000     0.384870000000     0.243900000000    -0.143682000000
H      5.513400000000     3.989860000000     5.340670000000    -0.327317000000     0.246085000000    -0.441405000000
C      5.192440000000     4.556910000000     4.437290000000    -0.710841000000    -0.235751000000     0.429368000000
5
Properties=species:S:1:pos:R:3:forces:R:3 energy=-23.953877620000 pbc="F F F"
H      5.416460000000     4.011320000000     3.511180000000     0.232950000000    -0.159244000000     0.099680000000
H      4.131610000000     4.706770000000     4.431160000000    -1.051801000000     0.212474000000    -0.007422000000
H      5.630960000000     5.521670000000     4.450380000000     0.585109000000     1.229627000000    -0.109784000000
H      5.499880000000     4.003410000000     5.342650000000    -0.004211000000     0.015820000000    -0.610367000000
C      5.192710000000     4.557750000000     4.436870000000     0.239088000000    -1.297787000000     0.627779000000
5
Properties=species:S:1:pos:R:3:forces:R:3 energy=-23.971860210000 pbc="F F F"
H      5.411260000000     4.192820000000     3.590950000000    -0.334838000000     0.632778000000     0.392085000000
H      3.968620000000     4.995480000000     4.420260000000     0.465410000000     0.061441000000    -0.160757000000
H      5.623370000000     5.832630000000     4.432600000000    -0.508155000000    -0.632957000000    -0.167495000000
H      5.338760000000     4.318030000000     5.359670000000    -0.112638000000     0.199776000000    -0.184462000000
C      5.069240000000     4.858270000000     4.427010000000     0.490594000000    -0.261125000000     0.120196000000
5
Properties=species:S:1:pos:R:3:forces:R:3 energy=-23.979102730000 pbc="F F F"
H      5.395530000000     4.199770000000     3.615660000000     0.010953000000     0.019643000000    -0.248736000000
H      3.973290000000     5.020510000000     4.395300000000     0.712488000000    -0.109705000000    -0.142935000000
H      5.592100000000     5.794960000000     4.431280000000     0.460863000000     0.706292000000    -0.102297000000
H      5.332730000000     4.331730000000     5.344000000000     0.189575000000    -0.201813000000     0.455457000000
C      5.073260000000     4.857610000000     4.428450000000    -1.373517000000    -0.414341000000     0.039000000000
5
Properties=species:S:1:pos:R:3:forces:R:3 energy=-23.960551360000 pbc="F F F"
H      5.380400000000     4.207400000000     3.630540000000     0.245004000000    -0.233103000000    -0.784227000000
H      4.005250000000     5.041060000000     4.365130000000    -0.376266000000    -0.071576000000     0.069379000000
H      5.578870000000     5.784830000000     4.426050000000     0.769923000000     1.158577000000    -0.217101000000
H      5.334050000000     4.337540000000     5.345990000000    -0.122428000000    -0.155047000000     0.530936000000
C      5.072850000000     4.855620000000     4.429990000000    -0.515911000000    -0.699255000000     0.401363000000
5
Properties=species:S:1:pos:R:3:forces:R:3 energy=-23.988277800000 pbc="F F F"
H      5.374900000000     4.205970000000     3.615170000000     0.216218000000    -0.056601000000    -0.407586000000
H      4.022250000000     5.058510000000     4.338150000000    -0.856778000000    -0.028393000000     0.157627000000
H      5.595330000000     5.819190000000     4.412610000000     0.120540000000    -0.185451000000    -0.140517000000
H      5.330650000000     4.337310000000     5.368250000000    -0.266861000000     0.081996000000     0.058605000000
C      5.070810000000     4.851440000000     4.432780000000     0.787721000000     0.188093000000     0.332103000000
5
Properties=species:S:1:pos:R:3:forces:R:3 energy=-23.971234020000 pbc="F F F"
H      5.377780000000     4.202420000000     3.584630000000    -0.061057000000     0.317779000000     0.428167000000
H      4.006180000000     5.074450000000     4.317830000000    -0.135670000000    -0.108457000000     0.232885000000
H      5.615970000000     5.845640000000     4.394140000000    -0.423173000000    -1.028514000000     0.080518000000
H      5.317170000000     4.340210000000     5.392200000000    -0.250313000000     0.247085000000    -0.325855000000
C      5.071310000000     4.847970000000     4.436560000000     0.871472000000     0.571204000000    -0.415475000000
5
Properties=species:S:1:pos:R:3:forces:R:3 energy=-23.964607850000 pbc="F F F"
H      5.378250000000     4.211060000000     3.571330000000    -0.197469000000     0.228981000000     0.760645000000
H      3.985460000000     5.085770000000     4.307010000000     0.584185000000    -0.131841000000     0.260086000000
H      5.619880000000     5.832190000000     4.379310000000    -0.475567000000    -0.704996000000     0.241154000000
H      5.294600000000     4.352410000000     5.403010000000    -0.117675000000     0.116855000000    -0.316813000000
C      5.074550000000     4.846410000000     4.438900000000     0.205742000000     0.490892000000    -0.947204000000
5
Properties=species:S:1:pos:R:3:forces:R:3 energy=-23.982786370000 pbc="F F F"
H      5.371210000000     4.228090000000     3.587340000000    -0.041560000000    -0.354627000000     0.184958000000
H      3.987620000000     5.091690000000     4.306430000000     0.544340000000    -0.146601000000     0.195518000000
H      5.605620000000     5.792460000000     4.374150000000     0.067327000000     0.400346000000     0.191212000000
H      5.268350000000     4.368620000000     5.401430000000    -0.023714000000    -0.174084000000    -0.026845000000
C      5.078330000000     4.846460000000     4.438180000000    -0.546699000000     0.275379000000    -0.544425000000
5
Properties=species:S:1:pos:R:3:forces:R:3 energy=-23.957321610000 pbc="F F F"
H      5.362860000000     4.231050000000     3.609760000000     0.356736000000    -0.731509000000    -0.568463000000
H      4.010310000000     5.091850000000     4.313270000000     0.049440000000    -0.153573000000     0.136466000000
H      5.594440000000     5.769380000000     4.376420000000     0.844738000000     1.189915000000     0.019901000000
H      5.242180000000     4.377630000000     5.398900000000     0.098293000000    -0.276789000000     0.248453000000
C      5.080250000000     4.847370000000     4.435760000000    -1.350074000000    -0.028174000000     0.163950000000
5
Properties=species:S:1:pos:R:3:forces:R:3 energy=-23.978877940000 pbc="F F F"
H      5.368330000000     4.206200000000     3.609790000000     0.154558000000    -0.144850000000    -0.140843000000
H      4.034000000000     5.086180000000     4.325020000000    -1.004141000000     0.241730000000    -0.026338000000
H      5.615670000000     5.792220000000     4.379360000000     0.212174000000     0.310285000000    -0.049202000000
H      5.220750000000     4.375820000000     5.405870000000    -0.008511000000    -0.046149000000     0.014570000000
C      5.077830000000     4.848160000000     4.433960000000     0.646026000000    -0.359828000000     0.202040000000
5
Properties=species:S:1:pos:R:3:forces:R:3 energy=-23.974459450000 pbc="F F F"
H      5.379430000000     4.176870000000     3.604500000000     0.111290000000     0.377111000000     0.488523000000
H      4.018760000000     5.089880000000     4.335300000000    -0.401968000000     0.301454000000     0.051858000000
H      5.644070000000     5.825880000000     4.380310000000    -0.490182000000    -0.788802000000    -0.139150000000
H      5.199850000000     4.372330000000     5.413110000000     0.020910000000    -0.073100000000    -0.165898000000
C      5.077550000000     4.847780000000     4.432860000000     0.759352000000     0.183331000000    -0.234359000000
5
Properties=species:S:1:pos:R:3:forces:R:3 energy=-23.984128620000 pbc="F F F"
H      5.395220000000     4.142300000000     3.623050000000     0.012732000000    -0.146860000000    -0.186763000000
H      3.981030000000     4.878750000000     4.427710000000    -0.150925000000     0.362403000000    -0.165743000000
H      5.630660000000     5.678970000000     4.460000000000     0.005920000000     0.703204000000    -0.077927000000
H      5.291100000000     4.237910000000     5.401970000000     0.046299000000    -0.006974000000    -0.159981000000
C      5.064290000000     4.761760000000     4.455770000000     0.086027000000    -0.912552000000     0.591017000000
5
Properties=species:S:1:pos:R:3:forces:R:3 energy=-23.948210550000 pbc="F F F"
H      5.376090000000     4.167470000000     3.628500000000     0.413192000000    -0.763778000000    -0.842329000000
H      3.994700000000     4.880930000000     4.413530000000    -0.549569000000     0.446088000000    -0.106787000000
H      5.624480000000     5.667210000000     4.469900000000     0.236748000000     1.112202000000    -0.119315000000
H      5.285670000000     4.245440000000     5.413490000000     0.017345000000    -0.055662000000    -0.386007000000
C      5.065710000000     4.759840000000     4.454710000000    -0.117162000000    -0.739816000000     1.453686000000
5
Properties=species:S:1:pos:R:3:forces:R:3 energy=-23.996870360000 pbc="F F F"
H      5.372970000000     4.163110000000     3.601510000000     0.247737000000    -0.291505000000    -0.157866000000
H      3.987150000000     4.900270000000     4.395320000000    -0.155258000000     0.309824000000    -0.006340000000
H      5.627450000000     5.698310000000     4.475160000000    -0.220625000000     0.126518000000    -0.158070000000
H      5.280930000000     4.250780000000     5.410090000000     0.048749000000    -0.230101000000    -0.138631000000
C      5.066750000000     4.755560000000     4.458320000000     0.080023000000     0.085193000000     0.459428000000
5
Properties=species:S:1:pos:R:3:forces:R:3 energy=-23.969512140000 pbc="F F F"
H      5.379390000000     4.147580000000     3.568710000000    -0.027770000000     0.456130000000     0.620612000000
H      3.973690000000     4.931330000000     4.377040000000     0.473433000000    -0.183987000000     0.153734000000
H      5.621910000000     5.733990000000     4.474300000000    -0.333325000000    -0.896347000000    -0.210333000000
H      5.278110000000     4.247230000000     5.401400000000    -0.016086000000    -0.307115000000     0.270090000000
C      5.068030000000     4.751590000000     4.463370000000    -0.096264000000     0.930660000000    -0.833607000000
5
Properties=species:S:1:pos:R:3:forces:R:3 energy=-23.968124590000 pbc="F F F"
H      5.384650000000     4.149760000000     3.560160000000    -0.206339000000     0.428410000000     0.911630000000
H      3.978570000000     4.954880000000     4.364920000000     0.409139000000    -0.134141000000     0.100259000000
H      5.603690000000     5.734810000000     4.465390000000    -0.310756000000    -0.652931000000    -0.029830000000
H      5.274710000000     4.231970000000     5.403190000000     0.020350000000    -0.200127000000     0.009961000000
C      5.068980000000     4.750650000000     4.465680000000     0.087964000000     0.558349000000    -0.991442000000
5
Properties=species:S:1:pos:R:3:forces:R:3 energy=-23.991046750000 pbc="F F F"
H      5.381930000000     4.168300000000     3.586650000000    -0.162919000000    -0.178618000000     0.199661000000
H      3.999020000000     4.972900000000     4.356830000000    -0.158200000000     0.101813000000    -0.145230000000
H      5.573870000000     5.710620000000     4.455490000000     0.114015000000     0.526323000000     0.195880000000
H      5.272150000000     4.209310000000     5.405320000000     0.056729000000     0.189721000000    -0.516739000000
C      5.070200000000     4.751500000000     4.464800000000     0.150226000000    -0.638600000000     0.266635000000
5
Properties=species:S:1:pos:R:3:forces:R:3 energy=-23.969425930000 pbc="F F F"
H      5.381020000000     4.166090000000     3.617730000000     0.291811000000    -0.308548000000    -0.614708000000
H      4.014470000000     5.003860000000     4.338120000000    -0.299937000000    -0.358356000000     0.206565000000
H      5.555910000000     5.731460000000     4.456510000000     0.461824000000    -0.113960000000     0.152056000000
H      5.267960000000     4.184930000000     5.371460000000    -0.046797000000     0.028526000000     0.399468000000
C      5.070840000000     4.749410000000     4.466500000000    -0.405508000000     0.751020000000    -0.143685000000
5
Properties=species:S:1:pos:R:3:forces:R:3 energy=-23.965148640000 pbc="F F F"
H      5.399990000000     4.141030000000     3.591810000000    -0.306305000000     0.510777000000     0.494934000000
H      4.004440000000     4.999410000000     4.340870000000    -0.126063000000    -0.221944000000     0.072731000000
H      5.580280000000     5.751050000000     4.465490000000    -0.091538000000    -0.742407000000     0.250589000000
H      5.262400000000     4.176770000000     5.370840000000    -0.001518000000     0.202667000000     0.350717000000
C      5.068530000000     4.750910000000     4.467730000000     0.525209000000     0.251605000000    -1.168559000000
5
Properties=species:S:1:pos:R:3:forces:R:3 energy=-23.992153010000 pbc="F F F"
H      5.406110000000     4.089390000000     3.578290000000     0.013591000000    -0.118743000000     0.082635000000
H      4.016580000000     4.869590000000     4.399340000000    -0.111277000000     0.163410000000    -0.098260000000
H      5.633780000000     5.702480000000     4.404930000000    -0.420541000000    -0.620284000000     0.133306000000
H      5.371700000000     4.173330000000     5.334850000000     0.202582000000     0.004267000000    -0.080067000000
C      5.092000000000     4.726680000000     4.416230000000     0.315758000000     0.571591000000    -0.037777000000
5
Properties=species:S:1:pos:R:3:forces:R:3 energy=-23.974910790000 pbc="F F F"
H      5.414570000000     4.107970000000     3.567640000000    -0.120114000000     0.229117000000    -0.038497000000
H      4.003850000000     4.848260000000     4.392380000000     0.030464000000     0.033058000000     0.078948000000
H      5.591030000000     5.662420000000     4.393760000000     0.542576000000     1.250471000000    -0.087612000000
H      5.409390000000     4.182450000000     5.301590000000    -0.062035000000    -0.133400000000     0.548724000000
C      5.092780000000     4.729480000000     4.421400000000    -0.390852000000    -1.379723000000    -0.501392000000
5
Properties=species:S:1:pos:R:3:forces:R:3 energy=-23.986513210000 pbc="F F F"
H      5.411110000000     4.133280000000     3.562290000000    -0.027192000000    -0.359118000000    -0.264025000000
H      3.988400000000     4.841160000000     4.392140000000     0.618727000000     0.103302000000    -0.119950000000
H      5.600440000000     5.711630000000     4.382620000000    -0.395995000000    -0.316589000000     0.200224000000
H      5.423850000000     4.182100000000     5.312360000000     0.167646000000    -0.011691000000     0.059068000000
C      5.092370000000     4.723900000000     4.421890000000    -0.363219000000     0.583247000000     0.125285000000
5
Properties=species:S:1:pos:R:3:forces:R:3 energy=-23.980080140000 pbc="F F F"
H      5.401920000000     4.155580000000     3.529320000000    -0.029517000000     0.031568000000     0.217920000000
H      4.012100000000     4.836290000000     4.390240000000    -0.339255000000     0.025954000000     0.217035000000
H      5.563930000000     5.741360000000     4.382620000000    -0.370855000000    -0.701340000000     0.165736000000
H      5.454800000000     4.192580000000     5.331030000000    -0.270397000000     0.246329000000    -0.287186000000
C      5.091620000000     4.719100000000     4.423240000000     1.010446000000     0.396893000000    -0.312702000000
5
Properties=species:S:1:pos:R:3:forces:R:3 energy=-23.989855900000 pbc="F F F"
H      5.396140000000     4.167670000000     3.520350000000    -0.096050000000    -0.206714000000     0.269482000000
H      4.014150000000     4.835520000000     4.401500000000    -0.407442000000    -0.026787000000     0.064929000000
H      5.519380000000     5.707610000000     4.392300000000     0.203170000000     0.701805000000     0.172098000000
H      5.454470000000     4.213180000000     5.325660000000    -0.022935000000    -0.128083000000    -0.041660000000
C      5.095670000000     4.719250000000     4.422700000000     0.323416000000    -0.340525000000    -0.464241000000
5
Properties=species:S:1:pos:R:3:forces:R:3 energy=-23.962400200000 pbc="F F F"
H      5.386770000000     4.171650000000     3.521840000000     0.188165000000    -0.103105000000    -0.095651000000
H      4.000580000000     4.833730000000     4.415050000000     0.189375000000    -0.283485000000     0.182790000000
H      5.483350000000     5.701270000000     4.408410000000     0.778067000000     1.396755000000    -0.176220000000
H      5.453270000000     4.228540000000     5.318770000000     0.001136000000    -0.378937000000     0.334229000000
C      5.100680000000     4.718320000000     4.420670000000    -1.156603000000    -0.635046000000    -0.247423000000
5
Properties=species:S:1:pos:R:3:forces:R:3 energy=-23.991507580000 pbc="F F F"
H      5.384780000000     4.171620000000     3.519650000000     0.227700000000    -0.083339000000    -0.163392000000
H      3.994510000000     4.821150000000     4.435330000000     0.373990000000    -0.278161000000     0.087356000000
H      5.477750000000     5.748450000000     4.417480000000     0.241210000000    -0.106509000000    -0.199443000000
H      5.452130000000     4.229130000000     5.324810000000     0.043333000000    -0.287127000000     0.170160000000
C      5.101910000000     4.715390000000     4.417910000000    -0.885867000000     0.757178000000     0.106443000000
5
Properties=species:S:1:pos:R:3:forces:R:3 energy=-23.971205800000 pbc="F F F"
H      5.391520000000     4.168410000000     3.511270000000     0.133763000000     0.081462000000     0.074725000000
H      4.002850000000     4.798230000000     4.458510000000     0.059876000000    -0.108128000000    -0.061909000000
H      5.481470000000     5.790530000000     4.418730000000    -0.205875000000    -1.181968000000    -0.174989000000
H      5.452660000000     4.218750000000     5.337200000000     0.018860000000     0.025237000000    -0.353356000000
C      5.100300000000     4.714930000000     4.415540000000    -0.005906000000     1.181954000000     0.515614000000
5
Properties=species:S:1:pos:R:3:forces:R:3 energy=-23.942517000000 pbc="F F F"
H      5.492240000000     4.138820000000     3.678040000000    -0.133177000000     0.402582000000     0.683367000000
H      4.049640000000     4.924960000000     4.521610000000     0.839803000000     0.003169000000     0.064156000000
H      5.713140000000     5.769260000000     4.527470000000    -0.663152000000    -1.031370000000    -0.013956000000
H      5.434490000000     4.218660000000     5.479080000000    -0.146383000000     0.275272000000    -0.651971000000
C      5.155130000000     4.783400000000     4.536460000000     0.102724000000     0.350436000000    -0.081985000000
5
Properties=species:S:1:pos:R:3:forces:R:3 energy=-23.994970120000 pbc="F F F"
H      5.478310000000     4.170140000000     3.704380000000     0.044442000000    -0.308150000000    -0.491237000000
H      4.080890000000     4.925000000000     4.528570000000    -0.227935000000    -0.030839000000    -0.116685000000
H      5.686320000000     5.748660000000     4.553950000000    -0.130121000000    -0.346548000000     0.080341000000
H      5.436310000000     4.216210000000     5.438150000000     0.112751000000     0.003737000000     0.193284000000
C      5.155760000000     4.782710000000     4.534890000000     0.200489000000     0.681590000000     0.334721000000
5
Properties=species:S:1:pos:R:3:forces:R:3 energy=-23.923169590000 pbc="F F F"
H      5.466320000000     4.189140000000     3.711480000000     0.318207000000    -0.400151000000    -1.222039000000
H      4.102890000000     4.923870000000     4.530950000000    -1.141343000000     0.137455000000    -0.052198000000
H      5.654970000000     5.715140000000     4.583040000000     0.682865000000     1.241126000000    -0.168377000000
H      5.442420000000     4.213940000000     5.405320000000     0.024568000000    -0.267328000000     0.713701000000
C      5.157030000000     4.784200000000     4.534420000000     0.116091000000    -0.711514000000     0.729051000000
5
Properties=species:S:1:pos:R:3:forces:R:3 energy=-23.973083820000 pbc="F F F"
H      5.469250000000     4.202680000000     3.620760000000    -0.268206000000     0.559044000000     0.633065000000
H      4.049120000000     4.931610000000     4.530520000000     0.810013000000    -0.078766000000    -0.159327000000
H      5.665060000000     5.775290000000     4.618180000000    -0.261016000000    -0.607436000000    -0.144720000000
H      5.456200000000     4.179270000000     5.418340000000     0.018206000000     0.179992000000    -0.218290000000
C      5.159280000000     4.780310000000     4.538000000000    -0.298916000000    -0.052722000000    -0.110676000000
5
Properties=species:S:1:pos:R:3:forces:R:3 energy=-23.958971960000 pbc="F F F"
H      5.433250000000     4.318140000000     3.620010000000     0.466257000000    -0.622473000000    -0.902957000000
H      4.099150000000     4.936540000000     4.514190000000    -0.838252000000     0.061193000000     0.182032000000
H      5.619720000000     5.736430000000     4.632190000000     0.452232000000     0.901007000000     0.053603000000
H      5.465280000000     4.168570000000     5.385920000000     0.028412000000    -0.360910000000     0.238483000000
C      5.161130000000     4.774410000000     4.540950000000    -0.108026000000     0.020691000000     0.429152000000
5
Properties=species:S:1:pos:R:3:forces:R:3 energy=-23.968351380000 pbc="F F F"
H      5.441490000000     4.331730000000     3.596920000000     0.060793000000    -0.466677000000    -0.244014000000
H      4.088730000000     4.940980000000     4.519610000000    -0.550986000000     0.008040000000     0.075479000000
H      5.610760000000     5.735280000000     4.635090000000     0.401034000000     1.019509000000     0.298718000000
H      5.464030000000     4.159190000000     5.369820000000     0.180248000000    -0.538656000000     0.517508000000
C      5.162160000000     4.773790000000     4.543520000000    -0.091137000000    -0.022035000000    -0.647977000000
5
Properties=species:S:1:pos:R:3:forces:R:3 energy=-23.992287640000 pbc="F F F"
H      5.451390000000     4.326970000000     3.566450000000    -0.243807000000     0.065732000000     0.622706000000
H      4.058590000000     4.945390000000     4.527440000000     0.405470000000    -0.178627000000     0.062566000000
H      5.617370000000     5.772130000000     4.648880000000    -0.058402000000    -0.180471000000     0.199360000000
H      5.469570000000     4.130460000000     5.374150000000    -0.017013000000    -0.010104000000     0.032904000000
C      5.162840000000     4.773140000000     4.543900000000    -0.085201000000     0.303530000000    -0.918046000000
5
Properties=species:S:1:pos:R:3:forces:R:3 energy=-23.964034860000 pbc="F F F"
H      5.398530000000     4.157640000000     3.563200000000     0.446706000000    -0.411259000000    -0.332530000000
H      4.016690000000     4.778590000000     4.395260000000    -1.037115000000    -0.175259000000     0.161770000000
H      5.419670000000     5.744570000000     4.376870000000     0.342648000000     0.012111000000    -0.018731000000
H      5.405080000000     4.268870000000     5.376380000000     0.168098000000    -0.311481000000     0.229803000000
C      5.084200000000     4.702770000000     4.437740000000     0.079487000000     0.885901000000    -0.040127000000
5
Properties=species:S:1:pos:R:3:forces:R:3 energy=-23.959462800000 pbc="F F F"
H      5.355830000000     4.051380000000     3.427950000000     0.226697000000    -0.071934000000     0.108220000000
H      4.050610000000     4.716100000000     4.323690000000    -1.586491000000     0.192244000000     0.048680000000
H      5.577840000000     5.547710000000     4.415140000000     0.107459000000    -0.121879000000    -0.040844000000
H      5.348750000000     3.976690000000     5.256680000000     0.056641000000    -0.029536000000    -0.196726000000
C      5.095210000000     4.563060000000     4.364150000000     1.196077000000     0.031602000000     0.080327000000
5
Properties=species:S:1:pos:R:3:forces:R:3 energy=-23.956975850000 pbc="F F F"
H      5.480290000000     4.076250000000     3.548790000000    -0.304770000000     0.218207000000     0.038499000000
H      4.054400000000     4.850090000000     4.377540000000    -0.492152000000     0.179665000000    -0.221723000000
H      5.674670000000     5.619600000000     4.391990000000     0.393929000000     1.110788000000    -0.070580000000
H      5.390570000000     4.148440000000     5.325180000000    -0.235728000000     0.444297000000    -0.656161000000
C      5.124280000000     4.709870000000     4.381290000000     0.638759000000    -1.953009000000     0.909890000000
5
Properties=species:S:1:pos:R:3:forces:R:3 energy=-23.954060510000 pbc="F F F"
H      5.373040000000     4.179630000000     3.620210000000     0.436854000000    -0.645272000000    -0.924581000000
H      4.013010000000     4.994440000000     4.343370000000    -0.319899000000    -0.304557000000     0.207040000000
H      5.549030000000     5.707030000000     4.453270000000     0.816236000000     0.732063000000     0.141573000000
H      5.271810000000     4.194360000000     5.387680000000    -0.091963000000     0.135396000000     0.026932000000
C      5.071880000000     4.750310000000     4.464780000000    -0.840286000000     0.081679000000     0.548830000000
5
Properties=species:S:1:pos:R:3:forces:R:3 energy=-23.942858620000 pbc="F F F"
H      5.377800000000     4.168460000000     3.469110000000     0.355477000000    -0.065304000000    -0.134693000000
H      4.060200000000     4.982680000000     4.295980000000     0.443543000000    -0.449524000000     0.413184000000
H      5.667380000000     5.687500000000     4.461700000000    -0.114369000000    -1.018759000000    -0.108337000000
H      5.348560000000     4.085410000000     5.252880000000    -0.014676000000    -0.416272000000     0.666766000000
C      5.136430000000     4.690750000000     4.394930000000    -0.669311000000     1.949573000000    -0.836736000000
5
Properties=species:S:1:pos:R:3:forces:R:3 energy=-23.984203060000 pbc="F F F"
H      5.253520000000     3.812440000000     3.526550000000     0.054418000000     0.574409000000     0.394377000000
H      3.836160000000     4.592770000000     4.322380000000    -0.068984000000    -0.033022000000     0.132667000000
H      5.372500000000     5.457650000000     4.329200000000     0.354315000000     0.131613000000    -0.116727000000
H      5.150590000000     3.939190000000     5.318800000000    -0.081114000000     0.293648000000    -0.290275000000
C      4.925520000000     4.467860000000     4.364490000000    -0.257561000000    -0.966335000000    -0.119506000000
5
Properties=species:S:1:pos:R:3:forces:R:3 energy=-23.996423540000 pbc="F F F"
H      5.359340000000     4.070500000000     3.617820000000    -0.014286000000    -0.192664000000    -0.487295000000
H      3.947230000000     4.833680000000     4.425020000000    -0.399978000000     0.069924000000    -0.141077000000
H      5.540260000000     5.636100000000     4.420420000000     0.172241000000     0.438288000000     0.010614000000
H      5.279080000000     4.140740000000     5.356470000000     0.016887000000     0.067208000000     0.147580000000
C      5.020780000000     4.688230000000     4.441100000000     0.225215000000    -0.382852000000     0.470635000000
5
Properties=species:S:1:pos:R:3:forces:R:3 energy=-23.973078240000 pbc="F F F"
H      5.417610000000     4.025630000000     3.495500000000     0.087133000000    -0.069752000000     0.393133000000
H      4.085160000000     4.695620000000     4.476000000000     0.417432000000     0.061147000000    -0.015872000000
H      5.647450000000     5.577960000000     4.442440000000    -0.382841000000    -0.713691000000     0.016566000000
H      5.485560000000     4.007630000000     5.314140000000     0.359408000000    -0.582707000000     0.465761000000
C      5.196300000000     4.552450000000     4.437480000000    -0.481284000000     1.304538000000    -0.859806000000
5
Properties=species:S:1:pos:R:3:forces:R:3 energy=-23.965798600000 pbc="F F F"
H      5.134440000000     3.976750000000     3.669110000000    -0.089403000000     0.952101000000     0.950418000000
H      3.808880000000     4.868790000000     4.507540000000     0.044032000000    -0.154518000000     0.247994000000
H      5.399410000000     5.638960000000     4.471690000000     0.179902000000    -0.062847000000    -0.241343000000
H      5.203490000000     4.190100000000     5.469360000000    -0.150617000000    -0.160737000000     0.264845000000
C      4.890290000000     4.671420000000     4.544780000000     0.016693000000    -0.575322000000    -1.221375000000
5
Properties=species:S:1:pos:R:3:forces:R:3 energy=-23.967669560000 pbc="F F F"
H      5.396700000000     4.158520000000     3.567560000000     0.427255000000    -0.521802000000    -0.450817000000
H      3.997180000000     4.791440000000     4.389810000000    -0.284699000000    -0.229284000000     0.185733000000
H      5.428390000000     5.718100000000     4.367970000000     0.613847000000     0.810621000000     0.035209000000
H      5.398020000000     4.243880000000     5.386410000000    -0.007187000000     0.004827000000    -0.248665000000
C      5.085840000000     4.705910000000     4.437740000000    -0.749173000000    -0.064316000000     0.477896000000
5
Properties=species:S:1:pos:R:3:forces:R:3 energy=-23.999599640000 pbc="F F F"
H      5.443070000000     4.278530000000     3.608690000000     0.199014000000    -0.066328000000    -0.014539000000
H      4.076770000000     4.934210000000     4.515640000000    -0.084533000000     0.009105000000     0.165285000000
H      5.647510000000     5.773810000000     4.631220000000    -0.203826000000    -0.453047000000    -0.121545000000
H      5.467770000000     4.164220000000     5.412840000000    -0.175038000000     0.132410000000    -0.365743000000
C      5.159650000000     4.775160000000     4.539610000000     0.264718000000     0.377522000000     0.336497000000
5
Properties=species:S:1:pos:R:3:forces:R:3 energy=-23.971559820000 pbc="F F F"
H      5.415500000000     4.019380000000     3.493900000000     0.080344000000    -0.036655000000     0.477808000000
H      4.126390000000     4.698310000000     4.453910000000    -0.966465000000     0.141581000000     0.015120000000
H      5.638080000000     5.547930000000     4.447170000000     0.070033000000     0.138155000000    -0.045284000000
H      5.486900000000     4.016840000000     5.321590000000     0.291616000000    -0.583615000000     0.332510000000
C      5.193710000000     4.554480000000     4.438440000000     0.526462000000     0.341201000000    -0.779603000000
5
Properties=species:S:1:pos:R:3:forces:R:3 energy=-23.979735660000 pbc="F F F"
H      5.153160000000     4.005800000000     3.695580000000    -0.118787000000     0.254477000000     0.369660000000
H      3.824910000000     4.848270000000     4.516720000000    -0.682538000000     0.183377000000    -0.002291000000
H      5.417690000000     5.659120000000     4.482610000000    -0.452217000000    -0.699797000000     0.085814000000
H      5.184400000000     4.189890000000     5.457070000000     0.233385000000    -0.353892000000     0.714286000000
C      4.887470000000     4.669050000000     4.541920000000     1.021126000000     0.615902000000    -1.166299000000
5
Properties=species:S:1:pos:R:3:forces:R:3 energy=-23.949165150000 pbc="F F F"
H      5.393320000000     3.972560000000     3.490420000000     0.164811000000    -0.057563000000    -0.047004000000
H      4.056800000000     4.701800000000     4.319560000000    -1.921177000000     0.185045000000    -0.042885000000
H      5.585210000000     5.555670000000     4.351930000000    -0.008041000000    -0.474828000000     0.054045000000
H      5.355770000000     3.981640000000     5.255250000000     0.124976000000     0.039285000000    -0.012226000000
C      5.090370000000     4.569730000000     4.364670000000     1.639657000000     0.306604000000     0.047776000000
5
Properties=species:S:1:pos:R:3:forces:R:3 energy=-23.960533930000 pbc="F F F"
H      5.486180000000     3.964850000000     3.557260000000    -0.316963000000     0.192020000000     0.137133000000
H      4.082710000000     4.731250000000     4.396480000000     0.531582000000    -0.188876000000     0.057596000000
H      5.701120000000     5.569660000000     4.431410000000    -0.544602000000    -1.068329000000     0.241290000000
H      5.504590000000     3.986090000000     5.302530000000     0.043233000000    -0.030038000000     0.613705000000
C      5.184740000000     4.557030000000     4.440840000000     0.286025000000     1.095825000000    -1.049174000000
5
Properties=species:S:1:pos:R:3:forces:R:3 energy=-23.965553150000 pbc="F F F"
H      5.480400000000     4.065060000000     3.553290000000    -0.046984000000     0.216995000000     0.185716000000
H      4.009460000000     4.846340000000     4.366340000000     1.117848000000    -0.038004000000     0.090468000000
H      5.690540000000     5.663980000000     4.373910000000    -0.456782000000    -0.445631000000    -0.171130000000
H      5.392200000000     4.170770000000     5.301610000000    -0.071381000000    -0.300830000000     0.336924000000
C      5.126550000000     4.705560000000     4.385310000000    -0.542248000000     0.567225000000    -0.442401000000
5
Properties=species:S:1:pos:R:3:forces:R:3 energy=-23.975443780000 pbc="F F F"
H      5.398140000000     4.068380000000     3.424100000000    -0.191858000000     0.045100000000     0.168825000000
H      3.970990000000     4.730390000000     4.356530000000     1.006697000000    -0.294727000000    -0.052014000000
H      5.603570000000     5.524890000000     4.432580000000     0.068645000000     0.135417000000    -0.029247000000
H      5.358500000000     3.974380000000     5.231410000000     0.010013000000    -0.341911000000     0.354050000000
C      5.095360000000     4.562540000000     4.362390000000    -0.896593000000     0.452845000000    -0.445406000000
5
Properties=species:S:1:pos:R:3:forces:R:3 energy=-23.961905700000 pbc="F F F"
H      5.167740000000     4.045580000000     3.737220000000     0.451291000000    -0.918159000000    -1.332348000000
H      3.814670000000     4.834360000000     4.526070000000    -0.147095000000     0.096934000000    -0.156618000000
H      5.418780000000     5.652460000000     4.497180000000    -0.186432000000    -0.494633000000     0.070232000000
H      5.173920000000     4.175840000000     5.472380000000     0.229245000000     0.074212000000     0.108191000000
C      4.887890000000     4.668620000000     4.535190000000    -0.346932000000     1.241617000000     1.310711000000
5
Properties=species:S:1:pos:R:3:forces:R:3 energy=-23.979082130000 pbc="F F F"
H      5.466770000000     4.192380000000     3.671870000000     0.053871000000     0.189139000000    -0.340192000000
H      4.080830000000     4.928000000000     4.531280000000    -0.275583000000    -0.009815000000    -0.028364000000
H      5.650480000000     5.729790000000     4.604930000000     0.498939000000     0.827597000000    -0.207453000000
H      5.449300000000     4.201560000000     5.400560000000     0.007036000000    -0.272986000000     0.590222000000
C      5.158630000000     4.783400000000     4.536260000000    -0.284762000000    -0.733592000000    -0.014109000000
5
Properties=species:S:1:pos:R:3:forces:R:3 energy=-23.988989650000 pbc="F F F"
H      5.509270000000     3.957520000000     3.570900000000    -0.194856000000     0.276729000000     0.030895000000
H      4.117830000000     4.721010000000     4.400290000000    -0.679304000000    -0.024864000000     0.080057000000
H      5.703320000000     5.522800000000     4.429220000000     0.032815000000     0.042717000000    -0.003937000000
H      5.495910000000     3.985630000000     5.307400000000    -0.157811000000    -0.020162000000     0.428914000000
C      5.180430000000     4.562430000000     4.439170000000     0.999188000000    -0.266448000000    -0.535448000000
5
Properties=species:S:1:pos:R:3:forces:R:3 energy=-23.960422070000 pbc="F F F"
H      5.406620000000     4.144580000000     3.546840000000    -0.007017000000    -0.004687000000    -0.057805000000
H      3.996850000000     4.838080000000     4.387290000000     0.178972000000     0.033044000000     0.202209000000
H      5.594560000000     5.748280000000     4.379270000000    -0.646403000000    -1.124390000000     0.173897000000
H      5.444650000000     4.181310000000     5.325320000000    -0.271728000000     0.314217000000    -0.185062000000
C      5.090790000000     4.720230000000     4.422790000000     0.743465000000     0.787420000000    -0.131871000000
5
Properties=species:S:1:pos:R:3:forces:R:3 energy=-23.976644140000 pbc="F F F"
H      5.303030000000     3.866270000000     3.553540000000    -0.031110000000    -0.426758000000    -0.592317000000
H      3.807590000000     4.592960000000     4.346640000000     0.597654000000     0.001109000000    -0.121807000000
H      5.445380000000     5.423670000000     4.351980000000    -0.347391000000     0.086399000000    -0.080752000000
H      5.183550000000     3.926800000000     5.270350000000    -0.077910000000    -0.280803000000     0.322993000000
C      4.914960000000     4.467220000000     4.362360000000    -0.141391000000     0.620063000000     0.471852000000
5
Properties=species:S:1:pos:R:3:forces:R:3 energy=-23.997536850000 pbc="F F F"
H      5.246280000000     4.233700000000     3.466010000000     0.103948000000    -0.099947000000     0.079750000000
H      3.915820000000     4.967290000000     4.358000000000    -0.242778000000    -0.054591000000     0.087285000000
H      5.484400000000     5.722320000000     4.443800000000     0.220448000000     0.112760000000     0.081899000000
H      5.222350000000     4.156230000000     5.263150000000     0.162818000000    -0.335313000000     0.416385000000
C      4.989320000000     4.751780000000     4.394980000000    -0.238713000000     0.373304000000    -0.666137000000
5
Properties=species:S:1:pos:R:3:forces:R:3 energy=-23.993647100000 pbc="F F F"
H      5.423230000000     3.960770000000     3.510620000000    -0.105580000000     0.162516000000    -0.108608000000
H      4.026030000000     4.700840000000     4.329910000000    -0.879481000000     0.132344000000    -0.032095000000
H      5.603140000000     5.536360000000     4.346370000000     0.001037000000     0.039336000000     0.047199000000
H      5.372540000000     3.992400000000     5.260860000000    -0.124611000000     0.315107000000    -0.055910000000
C      5.087550000000     4.571510000000     4.362130000000     1.108761000000    -0.648791000000     0.149243000000
5
Properties=species:S:1:pos:R:3:forces:R:3 energy=-23.943881410000 pbc="F F F"
H      5.461510000000     4.233510000000     3.596000000000    -0.296758000000     0.423951000000     0.961232000000
H      4.049450000000     4.932080000000     4.523800000000     0.719667000000     0.044906000000    -0.048286000000
H      5.669100000000     5.795690000000     4.625330000000    -0.676980000000    -1.096445000000    -0.022776000000
H      5.463440000000     4.164850000000     5.427030000000    -0.066946000000     0.346046000000    -0.596742000000
C      5.158960000000     4.777210000000     4.539300000000     0.321285000000     0.281645000000    -0.293690000000
5
Properties=species:S:1:pos:R:3:forces:R:3 energy=-23.985987430000 pbc="F F F"
H      5.452310000000     4.232940000000     3.671280000000    -0.119405000000    -0.361450000000    -0.457302000000
H      3.990610000000     4.796760000000     4.594780000000     0.078701000000    -0.197913000000    -0.195769000000
H      5.441010000000     5.783510000000     4.460410000000     0.255289000000     0.308521000000     0.275295000000
H      5.457890000000     4.252850000000     5.423340000000     0.310545000000    -0.064660000000     0.578059000000
C      5.088900000000     4.758310000000     4.545170000000    -0.524013000000     0.315677000000    -0.200790000000
5
Properties=species:S:1:pos:R:3:forces:R:3 energy=-23.958620660000 pbc="F F F"
H      5.436650000000     4.077150000000     3.593370000000    -0.106964000000     0.293139000000     0.400661000000
H      3.949690000000     4.853970000000     4.418180000000     1.261441000000    -0.030003000000     0.112094000000
H      5.629960000000     5.682210000000     4.426840000000    -0.559214000000    -0.521474000000    -0.191505000000
H      5.340080000000     4.171300000000     5.355780000000    -0.176324000000    -0.197822000000     0.000135000000
C      5.074500000000     4.716510000000     4.430880000000    -0.418868000000     0.456092000000    -0.321557000000
5
Properties=species:S:1:pos:R:3:forces:R:3 energy=-23.944130120000 pbc="F F F"
H      5.186090000000     3.986720000000     3.689520000000     0.631382000000    -0.741928000000    -1.193045000000
H      3.905100000000     4.728570000000     4.528130000000    -0.770242000000     0.013345000000     0.291145000000
H      5.433080000000     5.585370000000     4.488810000000    -0.060374000000    -0.778128000000    -0.020976000000
H      5.281170000000     4.057740000000     5.443010000000     0.126184000000    -0.262387000000     0.537602000000
C      4.969850000000     4.565060000000     4.545480000000     0.073236000000     1.769975000000     0.385138000000
5
Properties=species:S:1:pos:R:3:forces:R:3 energy=-23.945856040000 pbc="F F F"
H      5.438640000000     4.129030000000     3.509780000000     0.070443000000    -0.135083000000    -0.210236000000
H      4.022680000000     4.902940000000     4.368060000000     0.970298000000    -0.013304000000    -0.166806000000
H      5.700930000000     5.684500000000     4.430400000000    -0.688644000000    -0.943769000000    -0.162906000000
H      5.347940000000     4.157230000000     5.288540000000     0.286204000000    -0.504422000000     0.563358000000
C      5.131750000000     4.694940000000     4.385180000000    -0.638705000000     1.596321000000    -0.024789000000
5
Properties=species:S:1:pos:R:3:forces:R:3 energy=-23.984730020000 pbc="F F F"
H      5.243130000000     3.824610000000     3.512950000000    -0.043665000000     0.196787000000     0.403387000000
H      3.832280000000     4.572770000000     4.271120000000    -0.073538000000    -0.230017000000     0.162780000000
H      5.377320000000     5.433900000000     4.277640000000     0.383687000000     0.409801000000    -0.153080000000
H      5.175090000000     4.026080000000     5.359370000000    -0.265203000000     0.030325000000    -0.536304000000
C      4.924260000000     4.463250000000     4.370800000000     0.003259000000    -0.400290000000     0.127144000000
5
Properties=species:S:1:pos:R:3:forces:R:3 energy=-23.993940620000 pbc="F F F"
H      5.307450000000     4.192970000000     3.513940000000     0.099105000000    -0.180850000000    -0.126698000000
H      3.919080000000     4.946010000000     4.380970000000    -0.536905000000     0.221238000000    -0.071193000000
H      5.513500000000     5.707780000000     4.393530000000    -0.026613000000     0.295247000000    -0.158826000000
H      5.218420000000     4.201520000000     5.290400000000     0.093724000000    -0.415842000000     0.222796000000
C      4.981860000000     4.754380000000     4.390990000000     0.370478000000     0.079786000000     0.133606000000
5
Properties=species:S:1:pos:R:3:forces:R:3 energy=-23.976050240000 pbc="F F F"
H      5.413410000000     4.091410000000     3.571520000000    -0.158370000000     0.377986000000     0.074053000000
H      4.020560000000     4.856680000000     4.395680000000    -0.536786000000     0.114637000000     0.008849000000
H      5.602550000000     5.661360000000     4.401550000000     0.507591000000     1.090125000000    -0.115216000000
H      5.392460000000     4.177640000000     5.312000000000    -0.096512000000     0.013461000000     0.320293000000
C      5.091940000000     4.730650000000     4.419290000000     0.283855000000    -1.597255000000    -0.287729000000
5
Properties=species:S:1:pos:R:3:forces:R:3 energy=-23.966837480000 pbc="F F F"
H      5.439120000000     4.231800000000     3.692490000000     0.189196000000    -0.783276000000    -1.147257000000
H      3.977080000000     4.808410000000     4.587710000000     0.528054000000    -0.165637000000    -0.178307000000
H      5.462450000000     5.765380000000     4.473190000000     0.333725000000     0.713595000000     0.186177000000
H      5.452650000000     4.248080000000     5.441790000000     0.053705000000     0.160090000000     0.061458000000
C      5.089780000000     4.759340000000     4.541390000000    -1.104694000000     0.076876000000     1.077288000000
5
Properties=species:S:1:pos:R:3:forces:R:3 energy=-23.961516400000 pbc="F F F"
H      5.312420000000     3.875260000000     3.541030000000    -0.318911000000    -0.161876000000    -0.415238000000
H      3.798320000000     4.595690000000     4.343870000000     0.898907000000    -0.045003000000    -0.202234000000
H      5.448250000000     5.404360000000     4.351170000000     0.068362000000     0.736595000000     0.116768000000
H      5.193050000000     3.905290000000     5.277020000000    -0.169632000000     0.298471000000    -0.119423000000
C      4.913920000000     4.469640000000     4.363140000000    -0.478650000000    -0.828166000000     0.619773000000
5
Properties=species:S:1:pos:R:3:forces:R:3 energy=-23.968749770000 pbc="F F F"
H      5.408180000000     4.112640000000     3.685660000000    -0.278857000000     0.474319000000     0.673389000000
H      4.009640000000     4.902160000000     4.529350000000    -0.387878000000     0.241997000000    -0.081297000000
H      5.645370000000     5.736810000000     4.531410000000    -0.589984000000    -0.671812000000     0.030800000000
H      5.345440000000     4.229210000000     5.486900000000    -0.025403000000     0.200571000000    -0.389928000000
C      5.083340000000     4.765410000000     4.538220000000     1.282340000000    -0.245489000000    -0.232964000000
5
Properties=species:S:1:pos:R:3:forces:R:3 energy=-23.990627750000 pbc="F F F"
H      5.413370000000     4.176480000000     3.595610000000     0.290530000000    -0.057105000000    -0.210459000000
H      4.046950000000     4.926060000000     4.476620000000    -0.450728000000     0.148405000000     0.176493000000
H      5.634390000000     5.717990000000     4.512480000000    -0.051994000000     0.014765000000    -0.271052000000
H      5.345290000000     4.172570000000     5.347460000000    -0.016946000000    -0.519161000000     0.510323000000
C      5.119850000000     4.755790000000     4.463440000000     0.229006000000     0.413430000000    -0.204561000000
5
Properties=species:S:1:pos:R:3:forces:R:3 energy=-23.956438890000 pbc="F F F"
H      5.451770000000     3.979240000000     3.549240000000     0.212943000000     0.089813000000    -0.215844000000
H      4.068880000000     4.733990000000     4.394980000000     1.051629000000    -0.330335000000     0.352259000000
H      5.678310000000     5.574470000000     4.442710000000    -0.256035000000    -0.960207000000    -0.110161000000
H      5.514650000000     3.985380000000     5.321140000000    -0.288412000000     0.135907000000     0.042788000000
C      5.189820000000     4.555260000000     4.439150000000    -0.718422000000     1.062093000000    -0.070432000000
5
Properties=species:S:1:pos:R:3:forces:R:3 energy=-23.964875470000 pbc="F F F"
H      5.414980000000     4.111280000000     3.610330000000    -0.368878000000     0.512611000000     0.552115000000
H      3.961430000000     4.890590000000     4.435570000000     0.491610000000     0.193510000000    -0.177618000000
H      5.637110000000     5.718040000000     4.447010000000    -0.577482000000    -0.436468000000    -0.046428000000
H      5.298370000000     4.230070000000     5.384180000000     0.119770000000    -0.127509000000     0.236949000000
C      5.063130000000     4.760760000000     4.458730000000     0.335203000000    -0.142483000000    -0.564837000000
5
Properties=species:S:1:pos:R:3:forces:R:3 energy=-23.961364850000 pbc="F F F"
H      5.251920000000     4.227960000000     3.491880000000     0.300075000000    -0.380025000000    -0.644916000000
H      3.887830000000     4.989630000000     4.357250000000     0.768360000000    -0.461871000000     0.136488000000
H      5.470470000000     5.731240000000     4.432780000000     0.410110000000     0.023144000000     0.050440000000
H      5.233300000000     4.134070000000     5.297870000000    -0.195831000000     0.523603000000    -0.669128000000
C      4.991430000000     4.751500000000     4.390920000000    -1.282795000000     0.294919000000     1.127076000000
5
Properties=species:S:1:pos:R:3:forces:R:3 energy=-23.952344380000 pbc="F F F"
H      5.354570000000     4.219240000000     3.472240000000     0.445792000000    -0.206114000000    -0.186246000000
H      4.005190000000     4.894940000000     4.260600000000    -1.531364000000     0.028389000000     0.107893000000
H      5.525650000000     5.720080000000     4.428710000000     0.378139000000     0.107236000000    -0.128736000000
H      5.235580000000     4.192990000000     5.312030000000    -0.102161000000     0.020665000000    -0.394877000000
C      5.047580000000     4.746170000000     4.371930000000     0.809504000000     0.049972000000     0.602275000000
