5

H        5.3658600000       4.0541500000       3.5984800000
H        3.9261100000       4.8262800000       4.4244800000
H        5.5636000000       5.6503300000       4.4306400000
H        5.2872900000       4.1434700000       5.3670300000
C        5.0193600000       4.6887900000       4.4410300000
5

H        5.3660800000       4.0605600000       3.6111600000
H        3.9423500000       4.8279100000       4.4280400000
H        5.5514900000       5.6376800000       4.4257100000
H        5.2846000000       4.1373100000       5.3646300000
C        5.0192300000       4.6896900000       4.4402900000
5

H        5.3518800000       4.0731600000       3.6056100000
H        3.9366100000       4.8423100000       4.4164100000
H        5.5354800000       5.6516100000       4.4154100000
H        5.2740800000       4.1468700000       5.3538700000
C        5.0231000000       4.6854800000       4.4434700000
5

H        5.3581700000       4.0714700000       3.5868400000
H        3.9290800000       4.8573400000       4.4175600000
H        5.5251100000       5.6706100000       4.3988300000
H        5.2641900000       4.1365900000       5.3623000000
C        5.0248900000       4.6836500000       4.4456100000
5

H        5.3577400000       4.0785200000       3.5737800000
H        3.9361000000       4.8672400000       4.4161700000
H        5.5129900000       5.6769100000       4.3866600000
H        5.2575800000       4.1302800000       5.3772300000
C        5.0259000000       4.6822400000       4.4465900000
5

H        5.3465800000       4.0948700000       3.5736200000
H        3.9517300000       4.8689800000       4.4098200000
H        5.5019800000       5.6669400000       4.3841400000
H        5.2547100000       4.1372100000       5.3839500000
C        5.0266800000       4.6809800000       4.4467800000
5

H        5.3308800000       4.1100400000       3.5778800000
H        3.9580800000       4.8645500000       4.3997000000
H        5.5004400000       5.6545600000       4.3918800000
H        5.2561100000       4.1565700000       5.3791700000
C        5.0274700000       4.6795100000       4.4470200000
5

H        5.3255800000       4.1134400000       3.5804100000
H        3.9460700000       4.8671500000       4.3965000000
H        5.5073300000       5.6612500000       4.4039800000
H        5.2604600000       4.1735000000       5.3743100000
C        5.0279800000       4.6770400000       4.4464800000
5

H        5.3305400000       4.0967300000       3.5739200000
H        3.9296700000       4.8769500000       4.3971900000
H        5.5125100000       5.6778200000       4.4210400000
H        5.2718700000       4.1783000000       5.3800000000
C        5.0275500000       4.6758400000       4.4450600000
5

H        5.2424400000       4.0326600000       3.6817900000
H        3.7872500000       4.8132800000       4.5295100000
H        5.4080800000       5.6093800000       4.5272000000
H        5.1613300000       4.1631800000       5.4910900000
C        4.8858900000       4.6760900000       4.5354600000
5

H        5.2001600000       4.0503300000       3.7277300000
H        3.7985100000       4.8239900000       4.5294800000
H        5.4126300000       5.6264200000       4.5147400000
H        5.1721800000       4.1644200000       5.4921700000
C        4.8871900000       4.6722100000       4.5325900000
5

H        5.1129600000       3.9848200000       3.6795900000
H        3.7950700000       4.8827500000       4.5080700000
H        5.3885700000       5.6171000000       4.4519900000
H        5.2162100000       4.1842000000       5.4912800000
C        4.8930700000       4.6719000000       4.5436800000
5

H        5.0940900000       4.0160900000       3.7133400000
H        3.8030000000       4.8853400000       4.5211200000
H        5.4011200000       5.6214600000       4.4234600000
H        5.2137100000       4.1862300000       5.4965600000
C        4.8931500000       4.6685500000       4.5417200000
5

H        5.0887000000       4.0283100000       3.7228400000
H        3.8241700000       4.8808600000       4.5441800000
H        5.4252200000       5.6347600000       4.3931900000
H        5.1989000000       4.1990900000       5.4814100000
C        4.8910600000       4.6657200000       4.5427900000
5

H        5.0916200000       4.0068100000       3.6979200000
H        3.8300400000       4.8900400000       4.5635700000
H        5.4364600000       5.6405200000       4.3761900000
H        5.1914000000       4.2176800000       5.4635600000
C        4.8900200000       4.6647200000       4.5461500000
5

H        5.1040400000       3.9846800000       3.6759400000
H        3.8218000000       4.9072400000       4.5891600000
H        5.4341100000       5.6204200000       4.3657900000
H        5.1979800000       4.2186900000       5.4812500000
C        4.8893200000       4.6667200000       4.5452400000
5

H        5.4021400000       4.1404400000       3.7133600000
H        3.9833500000       4.8792200000       4.5366900000
H        5.6156700000       5.7162500000       4.5321100000
H        5.3659200000       4.2356600000       5.4735200000
C        5.0868000000       4.7661800000       4.5363500000
5

H        5.4028900000       4.1638400000       3.7299300000
H        3.9766500000       4.8613500000       4.5494200000
H        5.5858600000       5.7070300000       4.5317500000
H        5.3811300000       4.2458200000       5.4593600000
C        5.0885100000       4.7656400000       4.5351200000
5

H        5.4185600000       4.1573600000       3.6954100000
H        3.9943100000       4.8480800000       4.5574100000
H        5.5690400000       5.7385600000       4.5254700000
H        5.3945200000       4.2555300000       5.4476700000
C        5.0860200000       4.7638500000       4.5388300000
5

H        5.4341500000       4.1500000000       3.6556200000
H        4.0141400000       4.8327900000       4.5656700000
H        5.5560700000       5.7741600000       4.5181500000
H        5.4127300000       4.2535000000       5.4604000000
C        5.0826400000       4.7629400000       4.5410000000
5

H        5.4359800000       4.1645300000       3.6471400000
H        4.0027900000       4.8228700000       4.5688500000
H        5.5301800000       5.7868300000       4.5081900000
H        5.4328400000       4.2496200000       5.4700600000
C        5.0839100000       4.7618200000       4.5414700000
5

H        5.4327900000       4.1996600000       3.6693900000
H        3.9837700000       4.8140600000       4.5732800000
H        5.4980500000       5.7745900000       4.4939200000
H        5.4493000000       4.2494100000       5.4635100000
C        5.0870700000       4.7606700000       4.5409800000
5

H        5.4603700000       4.2204100000       3.6338300000
H        4.0064700000       4.7782000000       4.5941400000
H        5.4302100000       5.8124100000       4.4586000000
H        5.4745800000       4.2549600000       5.4275600000
C        5.0864200000       4.7583200000       4.5481400000
5

H        5.0515000000       4.1363900000       3.5958200000
H        3.5986600000       4.9266900000       4.4225600000
H        5.1744000000       5.7686100000       4.4268400000
H        4.9201400000       4.2307200000       5.3551400000
C        4.6616300000       4.7864200000       4.4402000000
5

H        5.0206100000       4.1506900000       3.6191600000
H        3.5631600000       4.9251700000       4.4239300000
H        5.1764400000       5.7523800000       4.4229100000
H        4.9449500000       4.2173000000       5.3471900000
C        4.6649200000       4.7878200000       4.4391300000
5

H        4.9812000000       4.1732800000       3.6313200000
H        3.5461700000       4.9201200000       4.4201700000
H        5.1802800000       5.7399300000       4.4193400000
H        4.9639400000       4.2193000000       5.3386300000
C        4.6677200000       4.7872300000       4.4394400000
5

H        4.9574200000       4.1734200000       3.5996100000
H        3.5735100000       4.9100800000       4.4218200000
H        5.1916100000       5.7405600000       4.4145300000
H        4.9769400000       4.2268900000       5.3363900000
C        4.6654000000       4.7873700000       4.4425300000
5

H        4.9416600000       4.1612100000       3.5506800000
H        3.6109900000       4.9073700000       4.4254200000
H        5.1990900000       5.7493500000       4.4103000000
H        4.9896000000       4.2354400000       5.3352800000
C        4.6619100000       4.7871700000       4.4467500000
5

H        4.9233000000       4.1640400000       3.5245100000
H        3.5963200000       4.9171900000       4.4320500000
H        5.1928500000       5.7495500000       4.4018500000
H        4.9974800000       4.2395800000       5.3334300000
C        4.6645200000       4.7857600000       4.4492300000
5

H        4.9005400000       4.1934800000       3.5367100000
H        3.5567400000       4.9340900000       4.4460400000
H        5.1805600000       5.7459900000       4.3905500000
H        5.0015600000       4.2393100000       5.3371100000
C        4.6704000000       4.7822200000       4.4476900000
5

H        4.8785200000       4.2246500000       3.5579500000
H        3.5452600000       4.9469700000       4.4653200000
H        5.1665000000       5.7446400000       4.3792600000
H        5.0008500000       4.2358800000       5.3412600000
C        4.6744200000       4.7789500000       4.4449100000
5

H        4.8707200000       4.2289500000       3.5467200000
H        3.5788800000       4.9535100000       4.4907900000
H        5.1590100000       5.7546400000       4.3710800000
H        4.9975900000       4.2335700000       5.3424200000
C        4.6731600000       4.7774000000       4.4443100000
5

H        4.8679700000       4.2163200000       3.5105200000
H        3.6133500000       4.9591100000       4.5196800000
H        5.1529600000       5.7697000000       4.3663900000
H        4.9874400000       4.2393700000       5.3360900000
C        4.6718700000       4.7762500000       4.4458300000
5

H        5.4684900000       4.0956900000       3.5458100000
H        4.0799200000       4.8606900000       4.3801100000
H        5.6740900000       5.6183600000       4.4071400000
H        5.3799100000       4.1434300000       5.3232900000
C        5.1240700000       4.7078900000       4.3802200000
5

H        5.4519000000       4.1128300000       3.5329500000
H        4.0512300000       4.8823700000       4.3736900000
H        5.6902200000       5.6582900000       4.4194900000
H        5.3624600000       4.1531600000       5.2962300000
C        5.1279500000       4.7005200000       4.3830500000
5

H        5.4285100000       4.1395600000       3.4794100000
H        4.0319100000       4.9223100000       4.3562900000
H        5.6851600000       5.6740200000       4.4347600000
H        5.3447700000       4.1420300000       5.3024900000
C        5.1334000000       4.6945900000       4.3871600000
5

H        5.4168100000       4.1528500000       3.4638200000
H        4.0697100000       4.9387200000       4.3427800000
H        5.6533400000       5.6415300000       4.4344600000
H        5.3459600000       4.1180000000       5.3159600000
C        5.1337800000       4.6968200000       4.3884900000
5

H        5.3965100000       4.1699300000       3.4686000000
H        4.0914300000       4.9537300000       4.3250500000
H        5.6373200000       5.6321700000       4.4402600000
H        5.3463700000       4.1059700000       5.3061200000
C        5.1349600000       4.6959300000       4.3899000000
5

H        5.3786300000       4.1750700000       3.4761500000
H        4.0788400000       4.9746900000       4.3038500000
H        5.6461700000       5.6648700000       4.4523300000
H        5.3479800000       4.1018900000       5.2710800000
C        5.1366300000       4.6913800000       4.3929500000
5

H        5.4807800000       4.0768900000       3.5395700000
H        4.0728500000       4.8414300000       4.3519400000
H        5.7119100000       5.6871500000       4.3567500000
H        5.4421900000       4.1289400000       5.2681100000
C        5.1656300000       4.7046200000       4.3614000000
5

H        5.4653300000       4.0736800000       3.4947900000
H        4.0812400000       4.8401200000       4.3443900000
H        5.6782100000       5.6476800000       4.3663500000
H        5.4328200000       4.1199300000       5.2730500000
C        5.1698000000       4.7090300000       4.3645500000
5

H        5.4520900000       4.0836900000       3.4651200000
H        4.0979600000       4.8450800000       4.3359700000
H        5.6633400000       5.6396600000       4.3741400000
H        5.4269800000       4.1197400000       5.2654300000
C        5.1712400000       4.7084700000       4.3677000000
5

H        5.4358600000       4.1122000000       3.4615200000
H        4.1009300000       4.8579700000       4.3206200000
H        5.6782000000       5.6816700000       4.3802500000
H        5.4298400000       4.1248400000       5.2471400000
C        5.1708700000       4.7011000000       4.3703000000
5

H        5.4178800000       4.1473400000       3.4731100000
H        4.0807500000       4.8745700000       4.3051100000
H        5.6861500000       5.7073500000       4.3877600000
H        5.4397400000       4.1193400000       5.2443100000
C        5.1725600000       4.6951100000       4.3702300000
5

H        5.4169100000       4.1717100000       3.4667100000
H        4.0707900000       4.8895900000       4.3027100000
H        5.6780400000       5.6921900000       4.3933300000
H        5.4507100000       4.1052400000       5.2584300000
C        5.1732300000       4.6942700000       4.3693300000
5

H        5.4347200000       4.1776700000       3.4346100000
H        4.0846200000       4.8971500000       4.3155300000
H        5.6633800000       5.6531700000       4.3980700000
H        5.4539600000       4.0959700000       5.2653700000
C        5.1715500000       4.6971700000       4.3699600000
5

H        5.4499500000       4.1739300000       3.4138300000
H        4.1012400000       4.9013000000       4.3320300000
H        5.6575200000       5.6376900000       4.4101300000
H        5.4495300000       4.0951700000       5.2479700000
C        5.1697500000       4.6984900000       4.3707600000
5

H        5.4518500000       4.1732000000       3.4224800000
H        4.1003300000       4.8993400000       4.3446300000
H        5.6752000000       5.6618700000       4.4299300000
H        5.4438600000       4.0934200000       5.2205500000
C        5.1686700000       4.6968400000       4.3696200000
5

H        5.4432500000       4.1796100000       3.4547700000
H        4.0832100000       4.8955600000       4.3554600000
H        5.6958300000       5.6889600000       4.4540900000
H        5.4440400000       4.0781300000       5.2105600000
C        5.1690800000       4.6956400000       4.3648600000
5

H        5.4496300000       3.9550700000       3.5270000000
H        3.9603600000       4.7050100000       4.3392100000
H        5.6214700000       5.5181900000       4.3425300000
H        5.3847900000       4.0156600000       5.2643900000
C        5.0882800000       4.5712100000       4.3600100000
5

H        5.3705800000       3.9818100000       3.4690400000
H        4.0136100000       4.7097700000       4.3079000000
H        5.5675100000       5.5563600000       4.3593800000
H        5.3442600000       3.9727000000       5.2493500000
C        5.0982900000       4.5689900000       4.3673000000
5

H        5.3452200000       3.9980600000       3.4515000000
H        3.9650800000       4.7166700000       4.2915400000
H        5.5588400000       5.5538100000       4.3747700000
H        5.3420100000       3.9752200000       5.2477600000
C        5.1053500000       4.5670600000       4.3689700000
5

H        5.3326100000       4.0217600000       3.4439600000
H        3.9701300000       4.7172900000       4.2902100000
H        5.5629100000       5.5572600000       4.3902900000
H        5.3437700000       3.9756800000       5.2572600000
C        5.1055000000       4.5647100000       4.3676200000
5

H        5.3378600000       4.0436100000       3.4382500000
H        4.0216800000       4.7131600000       4.3047800000
H        5.5747000000       5.5593500000       4.4044500000
H        5.3471600000       3.9758800000       5.2666700000
C        5.0995000000       4.5630500000       4.3649300000
5

H        5.3813900000       4.0560300000       3.4222600000
H        4.0183900000       4.7261200000       4.3434500000
H        5.5848500000       5.5320900000       4.4237500000
H        5.3524000000       3.9763400000       5.2398200000
C        5.0948700000       4.5631600000       4.3636700000
5

H        5.3412900000       3.9554200000       3.6753700000
H        3.8387900000       4.7181800000       4.5245600000
H        5.5021300000       5.5070800000       4.5352000000
H        5.2312700000       4.0514600000       5.4851100000
C        4.9608600000       4.5755700000       4.5395900000
5

H        5.3087000000       3.9815400000       3.7135300000
H        3.8728500000       4.6985100000       4.5470200000
H        5.5148100000       5.5400800000       4.5217800000
H        5.2129500000       4.0539500000       5.4624400000
C        4.9612100000       4.5720800000       4.5375500000
5

H        5.2730700000       3.9890000000       3.7234800000
H        3.9064800000       4.6817400000       4.5573400000
H        5.5101800000       5.5558700000       4.5157800000
H        5.2035300000       4.0542900000       5.4564100000
C        4.9625400000       4.5715100000       4.5368600000
5

H        5.2478700000       3.9604100000       3.6775300000
H        3.8929000000       4.6733000000       4.5550100000
H        5.4875900000       5.5398900000       4.5199400000
H        5.2115400000       4.0517000000       5.4767800000
C        4.9669800000       4.5761400000       4.5388400000
5

H        5.2279800000       3.9336600000       3.6338600000
H        3.8557400000       4.6799500000       4.5463900000
H        5.4606500000       5.5260700000       4.5216800000
H        5.2282500000       4.0494000000       5.4909400000
C        4.9725900000       4.5791500000       4.5418700000
5

H        5.2057000000       3.9393800000       3.6329000000
H        3.8446100000       4.6928600000       4.5362800000
H        5.4509700000       5.5474800000       4.5161900000
H        5.2445500000       4.0550600000       5.4824200000
C        4.9748200000       4.5753500000       4.5439600000
5

H        5.1884400000       3.9699000000       3.6676000000
H        3.8734400000       4.7077500000       4.5302200000
H        5.4495000000       5.5801000000       4.5039700000
H        5.2612000000       4.0616500000       5.4609800000
C        4.9725900000       4.5683000000       4.5443800000
5

H        5.2073600000       3.9747200000       3.6654800000
H        3.9057600000       4.7482900000       4.5370100000
H        5.4156700000       5.5613500000       4.4740300000
H        5.3043000000       4.0443800000       5.4463600000
C        4.9675500000       4.5675300000       4.5477000000
5

H        5.2304700000       3.9600200000       3.6379600000
H        3.8758000000       4.7618300000       4.5525100000
H        5.4126100000       5.5415700000       4.4647900000
H        5.3235000000       4.0358400000       5.4540000000
C        4.9667800000       4.5699800000       4.5488300000
5

H        5.3073600000       4.1084100000       3.5497100000
H        3.9152600000       4.8958400000       4.3673500000
H        5.5386500000       5.7145600000       4.3776200000
H        5.2122100000       4.2350300000       5.2936200000
C        4.9806100000       4.7622500000       4.3902100000
5

H        5.3212600000       4.1388100000       3.5353600000
H        3.8815700000       4.9044900000       4.3764400000
H        5.5488000000       5.7036500000       4.3711900000
H        5.2201200000       4.2089200000       5.3261100000
C        4.9807600000       4.7620800000       4.3884800000
5

H        5.3240100000       4.1748000000       3.5356800000
H        3.8643900000       4.9200100000       4.3810100000
H        5.5442700000       5.6926500000       4.3685200000
H        5.2275200000       4.1889600000       5.3462400000
C        4.9817200000       4.7603700000       4.3866100000
5

H        5.3168100000       4.1964600000       3.5339100000
H        3.8827300000       4.9341600000       4.3827300000
H        5.5303300000       5.6925900000       4.3769500000
H        5.2261600000       4.1893400000       5.3313700000
C        4.9820700000       4.7573600000       4.3871600000
5

H        5.3020600000       4.1826400000       3.4895200000
H        3.9342000000       4.9660900000       4.3765300000
H        5.4959900000       5.7339600000       4.4037100000
H        5.2144100000       4.1975700000       5.2587600000
C        4.9828400000       4.7517200000       4.3951800000
5

H        5.2891300000       4.1878500000       3.4836800000
H        3.9131000000       4.9859700000       4.3694100000
H        5.4817600000       5.7474300000       4.4130200000
H        5.2250900000       4.1636400000       5.2794100000
C        4.9859700000       4.7513400000       4.3937700000
5

H        5.2695100000       4.2071200000       3.4933100000
H        3.8890600000       4.9945900000       4.3618300000
H        5.4721800000       5.7413500000       4.4233900000
H        5.2369400000       4.1317200000       5.3074900000
C        4.9894200000       4.7521800000       4.3904000000
5

H        5.4743700000       4.1141200000       3.6148300000
H        3.9885500000       4.9015200000       4.4455900000
H        5.6559200000       5.7325900000       4.4581100000
H        5.3975900000       4.2120600000       5.3910600000
C        5.1134800000       4.7585200000       4.4653200000
5

H        5.4532000000       4.1397900000       3.6320900000
H        4.0403800000       4.9045900000       4.4641400000
H        5.6377700000       5.7071200000       4.4794800000
H        5.3807000000       4.1907600000       5.3778500000
C        5.1138500000       4.7600200000       4.4616600000
5

H        5.4284500000       4.1671600000       3.6346100000
H        4.0758500000       4.9105100000       4.4747200000
H        5.6267200000       5.6977300000       4.4973700000
H        5.3603800000       4.1809700000       5.3583300000
C        5.1155700000       4.7588500000       4.4607000000
5

H        5.4098900000       4.1832700000       3.5502000000
H        4.0021400000       4.9466100000       4.4851100000
H        5.6398000000       5.7380000000       4.5167400000
H        5.3301700000       4.1448800000       5.3563300000
C        5.1246800000       4.7541500000       4.4654200000
5

H        5.3997200000       4.2054900000       3.5247000000
H        4.0012500000       4.9590700000       4.4836900000
H        5.6411900000       5.7373000000       4.5193300000
H        5.3244900000       4.1221700000       5.3634700000
C        5.1259500000       4.7532100000       4.4668500000
5

H        5.3826200000       4.2422700000       3.5279800000
H        4.0452100000       4.9620100000       4.4742900000
H        5.6397900000       5.7162000000       4.5232200000
H        5.3259700000       4.1141600000       5.3526900000
C        5.1237100000       4.7523300000       4.4679400000
5

H        5.3691600000       4.2772000000       3.5462300000
H        4.0786500000       4.9693400000       4.4708000000
H        5.6373400000       5.6971600000       4.5291600000
H        5.3262800000       4.1122300000       5.3286000000
C        5.1222300000       4.7505600000       4.4682200000
5

H        5.3740900000       4.2887600000       3.5384900000
H        4.0612900000       4.9908700000       4.4769900000
H        5.6434800000       5.7009000000       4.5352700000
H        5.3266000000       4.1031900000       5.3059500000
C        5.1227200000       4.7482400000       4.4697200000
5

H        5.3875500000       4.2785700000       3.5033200000
H        4.0305400000       5.0101700000       4.4812800000
H        5.6616700000       5.7116500000       4.5491100000
H        5.3389200000       4.0809900000       5.3031400000
C        5.1216200000       4.7484400000       4.4713700000
5

H        5.2923700000       3.8407000000       3.5432000000
H        3.8400700000       4.5902600000       4.3447100000
H        5.4290400000       5.4464600000       4.3496700000
H        5.1709700000       3.9375800000       5.2761500000
C        4.9155500000       4.4667800000       4.3630900000
5

H        5.2786700000       3.8154000000       3.5276100000
H        3.8553500000       4.5901600000       4.3380300000
H        5.3986100000       5.4539300000       4.3398200000
H        5.1586200000       3.9344400000       5.2975000000
C        4.9189800000       4.4685300000       4.3639900000
5

H        5.2305600000       3.8316200000       3.5406900000
H        3.8143800000       4.5941100000       4.3119000000
H        5.3601300000       5.4664400000       4.3141100000
H        5.1394600000       3.9552300000       5.3288400000
C        4.9312000000       4.4640800000       4.3646000000
5

H        5.2191700000       3.8440500000       3.5393600000
H        3.8197200000       4.5904300000       4.3009700000
H        5.3601200000       5.4747900000       4.3000100000
H        5.1335800000       3.9832000000       5.3254200000
C        4.9321900000       4.4603300000       4.3670900000
5

H        5.2258900000       3.8385500000       3.5154400000
H        3.8474600000       4.5834100000       4.2918600000
H        5.3664700000       5.4708100000       4.2884700000
H        5.1387700000       4.0092100000       5.3275100000
C        4.9283600000       4.4595400000       4.3706200000
5

H        5.2358300000       3.8277900000       3.5026100000
H        3.8545900000       4.5803300000       4.2816200000
H        5.3675000000       5.4525200000       4.2826200000
H        5.1552300000       4.0212500000       5.3442600000
C        4.9254900000       4.4612100000       4.3716300000
5

H        5.4431700000       4.0858300000       3.6120000000
H        3.9707100000       4.8310000000       4.4292500000
H        5.5947900000       5.6594700000       4.4084900000
H        5.3439600000       4.1585800000       5.3532200000
C        5.0748200000       4.7206500000       4.4301500000
5

H        5.4381500000       4.0999300000       3.6228700000
H        4.0099900000       4.8106000000       4.4305200000
H        5.5675900000       5.6652900000       4.3916200000
H        5.3449500000       4.1616700000       5.3429600000
C        5.0741500000       4.7204400000       4.4314000000
5

H        5.4300300000       4.1065200000       3.6098000000
H        4.0125200000       4.7977100000       4.4218100000
H        5.5549300000       5.7068200000       4.3788200000
H        5.3489200000       4.1770400000       5.3360700000
C        5.0753400000       4.7162200000       4.4348500000
5

H        5.4219100000       4.1074800000       3.5789000000
H        3.9747600000       4.7924900000       4.4060500000
H        5.5377700000       5.7407500000       4.3721500000
H        5.3621100000       4.1935900000       5.3481800000
C        5.0794900000       4.7123700000       4.4382800000
5

H        5.4210400000       4.1171900000       3.5547900000
H        3.9513100000       4.7954600000       4.3968100000
H        5.5033400000       5.7426500000       4.3614700000
H        5.3765100000       4.2023900000       5.3695400000
C        5.0831800000       4.7104300000       4.4401700000
5

H        5.4116800000       4.1388100000       3.5543200000
H        3.9654500000       4.7958500000       4.3914300000
H        5.4618200000       5.7223800000       4.3600200000
H        5.3903200000       4.2178400000       5.3871000000
C        5.0850900000       4.7090000000       4.4393100000
5

H        5.4171000000       4.1413000000       3.5465200000
H        3.9962000000       4.7597500000       4.4065500000
H        5.4242800000       5.7702400000       4.3846500000
H        5.4181500000       4.2809300000       5.3754900000
C        5.0828900000       4.7025600000       4.4376200000
5

H        5.4416100000       3.9597100000       3.5529200000
H        4.0008300000       4.7157100000       4.3642700000
H        5.6577000000       5.5325000000       4.3740300000
H        5.3599200000       4.0082100000       5.2992000000
C        5.1010100000       4.5700700000       4.3886900000
5

H        5.4472500000       3.9692300000       3.5356700000
H        4.0037700000       4.7340700000       4.3605600000
H        5.6265700000       5.5172500000       4.3506900000
H        5.3613100000       3.9988600000       5.3179700000
C        5.1027700000       4.5698000000       4.3908200000
5

H        5.4449200000       3.9781800000       3.5188400000
H        4.0262300000       4.7494500000       4.3544900000
H        5.6009400000       5.5184000000       4.3336600000
H        5.3577300000       4.0064300000       5.3187600000
C        5.1035300000       4.5670500000       4.3940800000
5

H        5.4315900000       3.9896300000       3.5119700000
H        4.0438800000       4.7590700000       4.3461800000
H        5.5927300000       5.5445900000       4.3259600000
H        5.3525100000       4.0281500000       5.3069600000
C        5.1042800000       4.5613000000       4.3969600000
5

H        5.4122800000       3.9992400000       3.5127600000
H        4.0372000000       4.7635700000       4.3373100000
H        5.5915900000       5.5667700000       4.3294800000
H        5.3536700000       4.0469000000       5.3083400000
C        5.1064500000       4.5567200000       4.3972300000
5

H        5.3957300000       3.9976400000       3.5102100000
H        4.0188200000       4.7606100000       4.3313700000
H        5.5876200000       5.5622400000       4.3434700000
H        5.3638200000       4.0536000000       5.3329200000
C        5.1088400000       4.5569200000       4.3947300000
5

H        5.3872500000       3.9818100000       3.5037400000
H        4.0116300000       4.7497200000       4.3324900000
H        5.5815600000       5.5398800000       4.3632700000
H        5.3747700000       4.0574900000       5.3537800000
C        5.1097400000       4.5606800000       4.3917900000
5

H        5.3816900000       3.9565100000       3.5052100000
H        4.0180100000       4.7388100000       4.3352100000
H        5.5773900000       5.5322700000       4.3825000000
H        5.3800800000       4.0660300000       5.3402700000
C        5.1095700000       4.5636200000       4.3909600000
5

H        5.3798400000       3.9349700000       3.5217200000
H        4.0312300000       4.7271500000       4.3399800000
H        5.5859000000       5.5504300000       4.3938800000
H        5.3818800000       4.0713400000       5.3071400000
C        5.1077700000       4.5644300000       4.3910000000
5

H        5.3851800000       3.9269400000       3.5480500000
H        4.0329300000       4.7142300000       4.3512000000
H        5.6014100000       5.5672500000       4.3932800000
H        5.3856100000       4.0590600000       5.2961100000
C        5.1055800000       4.5658000000       4.3888400000
5

H        5.3961600000       4.1165400000       3.5295000000
H        3.9155600000       4.8939800000       4.3456300000
H        5.5683000000       5.7404500000       4.3538500000
H        5.3336600000       4.1689000000       5.2778900000
C        5.0398700000       4.7551100000       4.3691600000
5

H        5.3897700000       4.1317900000       3.5246000000
H        3.9622300000       4.8926900000       4.3244900000
H        5.5482800000       5.7214800000       4.3529200000
H        5.3229200000       4.1574600000       5.2782000000
C        5.0390700000       4.7564800000       4.3713800000
5

H        5.3744400000       4.1611400000       3.5210400000
H        3.9972600000       4.8912100000       4.3033800000
H        5.5322300000       5.7062900000       4.3554200000
H        5.3012500000       4.1718800000       5.2637000000
C        5.0405700000       4.7542200000       4.3744300000
5

H        5.3619400000       4.1885100000       3.5061200000
H        3.9739800000       4.8955600000       4.2827700000
H        5.5342600000       5.7179400000       4.3624700000
H        5.2787300000       4.1925900000       5.2580000000
C        5.0452600000       4.7488800000       4.3772800000
5

H        5.3546900000       4.2001100000       3.4703800000
H        3.9321400000       4.9032600000       4.2583400000
H        5.5405400000       5.7400200000       4.3728000000
H        5.2657400000       4.1993000000       5.2771500000
C        5.0499000000       4.7448800000       4.3798300000
5

H        5.3457300000       4.2042900000       3.4448100000
H        3.9227500000       4.9031600000       4.2427400000
H        5.5356100000       5.7403600000       4.3908000000
H        5.2581500000       4.1889400000       5.3177800000
C        5.0524700000       4.7453800000       4.3783800000
5

H        5.3442300000       4.2125600000       3.4485400000
H        3.9622000000       4.8984400000       4.2454900000
H        5.5280300000       5.7292000000       4.4102900000
H        5.2489100000       4.1844300000       5.3353100000
C        5.0507100000       4.7463800000       4.3747500000
5

H        5.3812200000       4.2178400000       3.4877900000
H        3.9884300000       4.8926700000       4.2790600000
H        5.5376400000       5.7154200000       4.4414000000
H        5.2190400000       4.2019200000       5.2749800000
C        5.0471400000       4.7461200000       4.3711300000
5

H        5.4167000000       4.2069100000       3.4880500000
H        3.9375500000       4.8887800000       4.2936400000
H        5.5596200000       5.7123400000       4.4508000000
H        5.2113400000       4.1879700000       5.2697200000
C        5.0472300000       4.7487700000       4.3695400000
5

H        5.4342100000       4.0599800000       3.5285500000
H        4.0218200000       4.8296200000       4.3411200000
H        5.6666200000       5.6560900000       4.3517100000
H        5.3832200000       4.1401900000       5.2734700000
C        5.1096900000       4.6981100000       4.3605900000
5

H        5.4317400000       4.0283800000       3.5391900000
H        4.0133700000       4.8407300000       4.3461700000
H        5.6562500000       5.6505200000       4.3331000000
H        5.3803100000       4.1350100000       5.2732200000
C        5.1117000000       4.7007100000       4.3608500000
5

H        5.4214600000       4.0142900000       3.5491600000
H        4.0201700000       4.8542900000       4.3475300000
H        5.6428900000       5.6450900000       4.3124300000
H        5.3736300000       4.1433400000       5.2733400000
C        5.1136600000       4.7005100000       4.3616200000
5

H        5.4044100000       4.0172300000       3.5561800000
H        4.0376600000       4.8680100000       4.3450600000
H        5.6372900000       5.6504200000       4.2903100000
H        5.3665000000       4.1631700000       5.2810400000
C        5.1146900000       4.6970300000       4.3624400000
5

H        5.3961800000       4.0240900000       3.5526800000
H        4.0530300000       4.8801200000       4.3476100000
H        5.6414200000       5.6551600000       4.2636600000
H        5.3604500000       4.1816000000       5.3044800000
C        5.1142500000       4.6935200000       4.3627900000
5

H        5.3981000000       4.0288500000       3.5369200000
H        4.0433000000       4.8949500000       4.3562400000
H        5.6458700000       5.6485000000       4.2323200000
H        5.3500400000       4.2017600000       5.3292700000
C        5.1154000000       4.6907700000       4.3639300000
5

H        5.3967800000       4.0304600000       3.5223600000
H        4.0251200000       4.9100200000       4.3594800000
H        5.6497000000       5.6350300000       4.2092600000
H        5.3447700000       4.2306000000       5.3423600000
C        5.1171400000       4.6881000000       4.3657000000
5

H        5.3924700000       4.0292800000       3.5271700000
H        4.0259700000       4.9269900000       4.3598300000
H        5.6496200000       5.6267700000       4.1934300000
H        5.3463700000       4.2567900000       5.3436000000
C        5.1173000000       4.6852900000       4.3664900000
5

H        5.3839200000       4.0200100000       3.5464500000
H        4.0486400000       4.9406900000       4.3553100000
H        5.6496800000       5.6268000000       4.1852600000
H        5.3579200000       4.2746900000       5.3435000000
C        5.1151600000       4.6834300000       4.3659400000
5

H        5.3715100000       3.9956300000       3.5641200000
H        4.0683300000       4.9467400000       4.3452100000
H        5.6547400000       5.6270500000       4.1856300000
H        5.3789500000       4.2856300000       5.3491500000
C        5.1123800000       4.6840300000       4.3648100000
5

H        5.5386800000       3.9593400000       3.5960300000
H        4.0631800000       4.7053500000       4.4178500000
H        5.7627200000       5.5242800000       4.4266400000
H        5.4241900000       4.0047000000       5.3572900000
C        5.1835600000       4.5618700000       4.4316800000
5

H        5.5331500000       3.9680700000       3.5953400000
H        4.0927600000       4.7038100000       4.4130700000
H        5.7374100000       5.4879300000       4.4253500000
H        5.4554800000       3.9942900000       5.3482700000
C        5.1810600000       4.5651600000       4.4329900000
5

H        5.5252500000       3.9608200000       3.5860400000
H        4.1272100000       4.7095600000       4.4073000000
H        5.7068400000       5.4765800000       4.4268200000
H        5.4808900000       3.9843600000       5.3291000000
C        5.1792800000       4.5670600000       4.4357200000
5

H        5.4267000000       3.9965000000       3.5333600000
H        4.0953900000       4.7241200000       4.4068800000
H        5.6466400000       5.5427400000       4.4494100000
H        5.5134000000       3.9898600000       5.3406700000
C        5.1924400000       4.5569100000       4.4372900000
5

H        5.4164600000       4.0113200000       3.5111800000
H        4.1316100000       4.7067700000       4.4311600000
H        5.6309600000       5.5216700000       4.4503800000
H        5.4998800000       4.0034100000       5.3426500000
C        5.1927100000       4.5577500000       4.4368700000
5

H        5.4112600000       4.1928200000       3.5909500000
H        3.9686200000       4.9954800000       4.4202600000
H        5.6233700000       5.8326300000       4.4326000000
H        5.3387600000       4.3180300000       5.3596700000
C        5.0692400000       4.8582700000       4.4270100000
5

H        5.3955300000       4.1997700000       3.6156600000
H        3.9732900000       5.0205100000       4.3953000000
H        5.5921000000       5.7949600000       4.4312800000
H        5.3327300000       4.3317300000       5.3440000000
C        5.0732600000       4.8576100000       4.4284500000
5

H        5.3804000000       4.2074000000       3.6305400000
H        4.0052500000       5.0410600000       4.3651300000
H        5.5788700000       5.7848300000       4.4260500000
H        5.3340500000       4.3375400000       5.3459900000
C        5.0728500000       4.8556200000       4.4299900000
5

H        5.3749000000       4.2059700000       3.6151700000
H        4.0222500000       5.0585100000       4.3381500000
H        5.5953300000       5.8191900000       4.4126100000
H        5.3306500000       4.3373100000       5.3682500000
C        5.0708100000       4.8514400000       4.4327800000
5

H        5.3777800000       4.2024200000       3.5846300000
H        4.0061800000       5.0744500000       4.3178300000
H        5.6159700000       5.8456400000       4.3941400000
H        5.3171700000       4.3402100000       5.3922000000
C        5.0713100000       4.8479700000       4.4365600000
5

H        5.3782500000       4.2110600000       3.5713300000
H        3.9854600000       5.0857700000       4.3070100000
H        5.6198800000       5.8321900000       4.3793100000
H        5.2946000000       4.3524100000       5.4030100000
C        5.0745500000       4.8464100000       4.4389000000
5

H        5.3712100000       4.2280900000       3.5873400000
H        3.9876200000       5.0916900000       4.3064300000
H        5.6056200000       5.7924600000       4.3741500000
H        5.2683500000       4.3686200000       5.4014300000
C        5.0783300000       4.8464600000       4.4381800000
5

H        5.3628600000       4.2310500000       3.6097600000
H        4.0103100000       5.0918500000       4.3132700000
H        5.5944400000       5.7693800000       4.3764200000
H        5.2421800000       4.3776300000       5.3989000000
C        5.0802500000       4.8473700000       4.4357600000
5

H        5.3683300000       4.2062000000       3.6097900000
H        4.0340000000       5.0861800000       4.3250200000
H        5.6156700000       5.7922200000       4.3793600000
H        5.2207500000       4.3758200000       5.4058700000
C        5.0778300000       4.8481600000       4.4339600000
5

H        5.3794300000       4.1768700000       3.6045000000
H        4.0187600000       5.0898800000       4.3353000000
H        5.6440700000       5.8258800000       4.3803100000
H        5.1998500000       4.3723300000       5.4131100000
C        5.0775500000       4.8477800000       4.4328600000
5

H        5.3952200000       4.1423000000       3.6230500000
H        3.9810300000       4.8787500000       4.4277100000
H        5.6306600000       5.6789700000       4.4600000000
H        5.2911000000       4.2379100000       5.4019700000
C        5.0642900000       4.7617600000       4.4557700000
5

H        5.3760900000       4.1674700000       3.6285000000
H        3.9947000000       4.8809300000       4.4135300000
H        5.6244800000       5.6672100000       4.4699000000
H        5.2856700000       4.2454400000       5.4134900000
C        5.0657100000       4.7598400000       4.4547100000
5

H        5.3729700000       4.1631100000       3.6015100000
H        3.9871500000       4.9002700000       4.3953200000
H        5.6274500000       5.6983100000       4.4751600000
H        5.2809300000       4.2507800000       5.4100900000
C        5.0667500000       4.7555600000       4.4583200000
5

H        5.3793900000       4.1475800000       3.5687100000
H        3.9736900000       4.9313300000       4.3770400000
H        5.6219100000       5.7339900000       4.4743000000
H        5.2781100000       4.2472300000       5.4014000000
C        5.0680300000       4.7515900000       4.4633700000
5

H        5.3846500000       4.1497600000       3.5601600000
H        3.9785700000       4.9548800000       4.3649200000
H        5.6036900000       5.7348100000       4.4653900000
H        5.2747100000       4.2319700000       5.4031900000
C        5.0689800000       4.7506500000       4.4656800000
5

H        5.3819300000       4.1683000000       3.5866500000
H        3.9990200000       4.9729000000       4.3568300000
H        5.5738700000       5.7106200000       4.4554900000
H        5.2721500000       4.2093100000       5.4053200000
C        5.0702000000       4.7515000000       4.4648000000
5

H        5.3810200000       4.1660900000       3.6177300000
H        4.0144700000       5.0038600000       4.3381200000
H        5.5559100000       5.7314600000       4.4565100000
H        5.2679600000       4.1849300000       5.3714600000
C        5.0708400000       4.7494100000       4.4665000000
5

H        5.3999900000       4.1410300000       3.5918100000
H        4.0044400000       4.9994100000       4.3408700000
H        5.5802800000       5.7510500000       4.4654900000
H        5.2624000000       4.1767700000       5.3708400000
C        5.0685300000       4.7509100000       4.4677300000
5

H        5.4061100000       4.0893900000       3.5782900000
H        4.0165800000       4.8695900000       4.3993400000
H        5.6337800000       5.7024800000       4.4049300000
H        5.3717000000       4.1733300000       5.3348500000
C        5.0920000000       4.7266800000       4.4162300000
5

H        5.4145700000       4.1079700000       3.5676400000
H        4.0038500000       4.8482600000       4.3923800000
H        5.5910300000       5.6624200000       4.3937600000
H        5.4093900000       4.1824500000       5.3015900000
C        5.0927800000       4.7294800000       4.4214000000
5

H        5.4111100000       4.1332800000       3.5622900000
H        3.9884000000       4.8411600000       4.3921400000
H        5.6004400000       5.7116300000       4.3826200000
H        5.4238500000       4.1821000000       5.3123600000
C        5.0923700000       4.7239000000       4.4218900000
5

H        5.4019200000       4.1555800000       3.5293200000
H        4.0121000000       4.8362900000       4.3902400000
H        5.5639300000       5.7413600000       4.3826200000
H        5.4548000000       4.1925800000       5.3310300000
C        5.0916200000       4.7191000000       4.4232400000
5

H        5.3961400000       4.1676700000       3.5203500000
H        4.0141500000       4.8355200000       4.4015000000
H        5.5193800000       5.7076100000       4.3923000000
H        5.4544700000       4.2131800000       5.3256600000
C        5.0956700000       4.7192500000       4.4227000000
5

H        5.3867700000       4.1716500000       3.5218400000
H        4.0005800000       4.8337300000       4.4150500000
H        5.4833500000       5.7012700000       4.4084100000
H        5.4532700000       4.2285400000       5.3187700000
C        5.1006800000       4.7183200000       4.4206700000
5

H        5.3847800000       4.1716200000       3.5196500000
H        3.9945100000       4.8211500000       4.4353300000
H        5.4777500000       5.7484500000       4.4174800000
H        5.4521300000       4.2291300000       5.3248100000
C        5.1019100000       4.7153900000       4.4179100000
5

H        5.3915200000       4.1684100000       3.5112700000
H        4.0028500000       4.7982300000       4.4585100000
H        5.4814700000       5.7905300000       4.4187300000
H        5.4526600000       4.2187500000       5.3372000000
C        5.1003000000       4.7149300000       4.4155400000
5

H        5.4922400000       4.1388200000       3.6780400000
H        4.0496400000       4.9249600000       4.5216100000
H        5.7131400000       5.7692600000       4.5274700000
H        5.4344900000       4.2186600000       5.4790800000
C        5.1551300000       4.7834000000       4.5364600000
5

H        5.4783100000       4.1701400000       3.7043800000
H        4.0808900000       4.9250000000       4.5285700000
H        5.6863200000       5.7486600000       4.5539500000
H        5.4363100000       4.2162100000       5.4381500000
C        5.1557600000       4.7827100000       4.5348900000
5

H        5.4663200000       4.1891400000       3.7114800000
H        4.1028900000       4.9238700000       4.5309500000
H        5.6549700000       5.7151400000       4.5830400000
H        5.4424200000       4.2139400000       5.4053200000
C        5.1570300000       4.7842000000       4.5344200000
5

H        5.4692500000       4.2026800000       3.6207600000
H        4.0491200000       4.9316100000       4.5305200000
H        5.6650600000       5.7752900000       4.6181800000
H        5.4562000000       4.1792700000       5.4183400000
C        5.1592800000       4.7803100000       4.5380000000
5

H        5.4332500000       4.3181400000       3.6200100000
H        4.0991500000       4.9365400000       4.5141900000
H        5.6197200000       5.7364300000       4.6321900000
H        5.4652800000       4.1685700000       5.3859200000
C        5.1611300000       4.7744100000       4.5409500000
5

H        5.4414900000       4.3317300000       3.5969200000
H        4.0887300000       4.9409800000       4.5196100000
H        5.6107600000       5.7352800000       4.6350900000
H        5.4640300000       4.1591900000       5.3698200000
C        5.1621600000       4.7737900000       4.5435200000
5

H        5.4513900000       4.3269700000       3.5664500000
H        4.0585900000       4.9453900000       4.5274400000
H        5.6173700000       5.7721300000       4.6488800000
H        5.4695700000       4.1304600000       5.3741500000
C        5.1628400000       4.7731400000       4.5439000000
5

H        5.3985300000       4.1576400000       3.5632000000
H        4.0166900000       4.7785900000       4.3952600000
H        5.4196700000       5.7445700000       4.3768700000
H        5.4050800000       4.2688700000       5.3763800000
C        5.0842000000       4.7027700000       4.4377400000
5

H        5.3558300000       4.0513800000       3.4279500000
H        4.0506100000       4.7161000000       4.3236900000
H        5.5778400000       5.5477100000       4.4151400000
H        5.3487500000       3.9766900000       5.2566800000
C        5.0952100000       4.5630600000       4.3641500000
5

H        5.4802900000       4.0762500000       3.5487900000
H        4.0544000000       4.8500900000       4.3775400000
H        5.6746700000       5.6196000000       4.3919900000
H        5.3905700000       4.1484400000       5.3251800000
C        5.1242800000       4.7098700000       4.3812900000
5

H        5.3730400000       4.1796300000       3.6202100000
H        4.0130100000       4.9944400000       4.3433700000
H        5.5490300000       5.7070300000       4.4532700000
H        5.2718100000       4.1943600000       5.3876800000
C        5.0718800000       4.7503100000       4.4647800000
5

H        5.3778000000       4.1684600000       3.4691100000
H        4.0602000000       4.9826800000       4.2959800000
H        5.6673800000       5.6875000000       4.4617000000
H        5.3485600000       4.0854100000       5.2528800000
C        5.1364300000       4.6907500000       4.3949300000
5

H        5.2535200000       3.8124400000       3.5265500000
H        3.8361600000       4.5927700000       4.3223800000
H        5.3725000000       5.4576500000       4.3292000000
H        5.1505900000       3.9391900000       5.3188000000
C        4.9255200000       4.4678600000       4.3644900000
5

H        5.3593400000       4.0705000000       3.6178200000
H        3.9472300000       4.8336800000       4.4250200000
H        5.5402600000       5.6361000000       4.4204200000
H        5.2790800000       4.1407400000       5.3564700000
C        5.0207800000       4.6882300000       4.4411000000
5

H        5.4176100000       4.0256300000       3.4955000000
H        4.0851600000       4.6956200000       4.4760000000
H        5.6474500000       5.5779600000       4.4424400000
H        5.4855600000       4.0076300000       5.3141400000
C        5.1963000000       4.5524500000       4.4374800000
5

H        5.1344400000       3.9767500000       3.6691100000
H        3.8088800000       4.8687900000       4.5075400000
H        5.3994100000       5.6389600000       4.4716900000
H        5.2034900000       4.1901000000       5.4693600000
C        4.8902900000       4.6714200000       4.5447800000
5

H        5.3967000000       4.1585200000       3.5675600000
H        3.9971800000       4.7914400000       4.3898100000
H        5.4283900000       5.7181000000       4.3679700000
H        5.3980200000       4.2438800000       5.3864100000
C        5.0858400000       4.7059100000       4.4377400000
5

H        5.4430700000       4.2785300000       3.6086900000
H        4.0767700000       4.9342100000       4.5156400000
H        5.6475100000       5.7738100000       4.6312200000
H        5.4677700000       4.1642200000       5.4128400000
C        5.1596500000       4.7751600000       4.5396100000
5

H        5.4155000000       4.0193800000       3.4939000000
H        4.1263900000       4.6983100000       4.4539100000
H        5.6380800000       5.5479300000       4.4471700000
H        5.4869000000       4.0168400000       5.3215900000
C        5.1937100000       4.5544800000       4.4384400000
5

H        5.1531600000       4.0058000000       3.6955800000
H        3.8249100000       4.8482700000       4.5167200000
H        5.4176900000       5.6591200000       4.4826100000
H        5.1844000000       4.1898900000       5.4570700000
C        4.8874700000       4.6690500000       4.5419200000
5

H        5.3933200000       3.9725600000       3.4904200000
H        4.0568000000       4.7018000000       4.3195600000
H        5.5852100000       5.5556700000       4.3519300000
H        5.3557700000       3.9816400000       5.2552500000
C        5.0903700000       4.5697300000       4.3646700000
5

H        5.4861800000       3.9648500000       3.5572600000
H        4.0827100000       4.7312500000       4.3964800000
H        5.7011200000       5.5696600000       4.4314100000
H        5.5045900000       3.9860900000       5.3025300000
C        5.1847400000       4.5570300000       4.4408400000
5

H        5.4804000000       4.0650600000       3.5532900000
H        4.0094600000       4.8463400000       4.3663400000
H        5.6905400000       5.6639800000       4.3739100000
H        5.3922000000       4.1707700000       5.3016100000
C        5.1265500000       4.7055600000       4.3853100000
5

H        5.3981400000       4.0683800000       3.4241000000
H        3.9709900000       4.7303900000       4.3565300000
H        5.6035700000       5.5248900000       4.4325800000
H        5.3585000000       3.9743800000       5.2314100000
C        5.0953600000       4.5625400000       4.3623900000
5

H        5.1677400000       4.0455800000       3.7372200000
H        3.8146700000       4.8343600000       4.5260700000
H        5.4187800000       5.6524600000       4.4971800000
H        5.1739200000       4.1758400000       5.4723800000
C        4.8878900000       4.6686200000       4.5351900000
5

H        5.4667700000       4.1923800000       3.6718700000
H        4.0808300000       4.9280000000       4.5312800000
H        5.6504800000       5.7297900000       4.6049300000
H        5.4493000000       4.2015600000       5.4005600000
C        5.1586300000       4.7834000000       4.5362600000
5

H        5.5092700000       3.9575200000       3.5709000000
H        4.1178300000       4.7210100000       4.4002900000
H        5.7033200000       5.5228000000       4.4292200000
H        5.4959100000       3.9856300000       5.3074000000
C        5.1804300000       4.5624300000       4.4391700000
5

H        5.4066200000       4.1445800000       3.5468400000
H        3.9968500000       4.8380800000       4.3872900000
H        5.5945600000       5.7482800000       4.3792700000
H        5.4446500000       4.1813100000       5.3253200000
C        5.0907900000       4.7202300000       4.4227900000
5

H        5.3030300000       3.8662700000       3.5535400000
H        3.8075900000       4.5929600000       4.3466400000
H        5.4453800000       5.4236700000       4.3519800000
H        5.1835500000       3.9268000000       5.2703500000
C        4.9149600000       4.4672200000       4.3623600000
5

H        5.2462800000       4.2337000000       3.4660100000
H        3.9158200000       4.9672900000       4.3580000000
H        5.4844000000       5.7223200000       4.4438000000
H        5.2223500000       4.1562300000       5.2631500000
C        4.9893200000       4.7517800000       4.3949800000
5

H        5.4232300000       3.9607700000       3.5106200000
H        4.0260300000       4.7008400000       4.3299100000
H        5.6031400000       5.5363600000       4.3463700000
H        5.3725400000       3.9924000000       5.2608600000
C        5.0875500000       4.5715100000       4.3621300000
5

H        5.4615100000       4.2335100000       3.5960000000
H        4.0494500000       4.9320800000       4.5238000000
H        5.6691000000       5.7956900000       4.6253300000
H        5.4634400000       4.1648500000       5.4270300000
C        5.1589600000       4.7772100000       4.5393000000
5

H        5.4523100000       4.2329400000       3.6712800000
H        3.9906100000       4.7967600000       4.5947800000
H        5.4410100000       5.7835100000       4.4604100000
H        5.4578900000       4.2528500000       5.4233400000
C        5.0889000000       4.7583100000       4.5451700000
5

H        5.4366500000       4.0771500000       3.5933700000
H        3.9496900000       4.8539700000       4.4181800000
H        5.6299600000       5.6822100000       4.4268400000
H        5.3400800000       4.1713000000       5.3557800000
C        5.0745000000       4.7165100000       4.4308800000
5

H        5.1860900000       3.9867200000       3.6895200000
H        3.9051000000       4.7285700000       4.5281300000
H        5.4330800000       5.5853700000       4.4888100000
H        5.2811700000       4.0577400000       5.4430100000
C        4.9698500000       4.5650600000       4.5454800000
5

H        5.4386400000       4.1290300000       3.5097800000
H        4.0226800000       4.9029400000       4.3680600000
H        5.7009300000       5.6845000000       4.4304000000
H        5.3479400000       4.1572300000       5.2885400000
C        5.1317500000       4.6949400000       4.3851800000
5

H        5.2431300000       3.8246100000       3.5129500000
H        3.8322800000       4.5727700000       4.2711200000
H        5.3773200000       5.4339000000       4.2776400000
H        5.1750900000       4.0260800000       5.3593700000
C        4.9242600000       4.4632500000       4.3708000000
5

H        5.3074500000       4.1929700000       3.5139400000
H        3.9190800000       4.9460100000       4.3809700000
H        5.5135000000       5.7077800000       4.3935300000
H        5.2184200000       4.2015200000       5.2904000000
C        4.9818600000       4.7543800000       4.3909900000
5

H        5.4134100000       4.0914100000       3.5715200000
H        4.0205600000       4.8566800000       4.3956800000
H        5.6025500000       5.6613600000       4.4015500000
H        5.3924600000       4.1776400000       5.3120000000
C        5.0919400000       4.7306500000       4.4192900000
5

H        5.4391200000       4.2318000000       3.6924900000
H        3.9770800000       4.8084100000       4.5877100000
H        5.4624500000       5.7653800000       4.4731900000
H        5.4526500000       4.2480800000       5.4417900000
C        5.0897800000       4.7593400000       4.5413900000
5

H        5.3124200000       3.8752600000       3.5410300000
H        3.7983200000       4.5956900000       4.3438700000
H        5.4482500000       5.4043600000       4.3511700000
H        5.1930500000       3.9052900000       5.2770200000
C        4.9139200000       4.4696400000       4.3631400000
5

H        5.4081800000       4.1126400000       3.6856600000
H        4.0096400000       4.9021600000       4.5293500000
H        5.6453700000       5.7368100000       4.5314100000
H        5.3454400000       4.2292100000       5.4869000000
C        5.0833400000       4.7654100000       4.5382200000
5

H        5.4133700000       4.1764800000       3.5956100000
H        4.0469500000       4.9260600000       4.4766200000
H        5.6343900000       5.7179900000       4.5124800000
H        5.3452900000       4.1725700000       5.3474600000
C        5.1198500000       4.7557900000       4.4634400000
5

H        5.4517700000       3.9792400000       3.5492400000
H        4.0688800000       4.7339900000       4.3949800000
H        5.6783100000       5.5744700000       4.4427100000
H        5.5146500000       3.9853800000       5.3211400000
C        5.1898200000       4.5552600000       4.4391500000
5

H        5.4149800000       4.1112800000       3.6103300000
H        3.9614300000       4.8905900000       4.4355700000
H        5.6371100000       5.7180400000       4.4470100000
H        5.2983700000       4.2300700000       5.3841800000
C        5.0631300000       4.7607600000       4.4587300000
5

H        5.2519200000       4.2279600000       3.4918800000
H        3.8878300000       4.9896300000       4.3572500000
H        5.4704700000       5.7312400000       4.4327800000
H        5.2333000000       4.1340700000       5.2978700000
C        4.9914300000       4.7515000000       4.3909200000
5

H        5.3545700000       4.2192400000       3.4722400000
H        4.0051900000       4.8949400000       4.2606000000
H        5.5256500000       5.7200800000       4.4287100000
H        5.2355800000       4.1929900000       5.3120300000
C        5.0475800000       4.7461700000       4.3719300000
