5
Properties=species:S:1:pos:R:3:forces:R:3 energy=-1101.552953733680 pbc="F F F"
H     -0.100958400000    -0.419550100000    -1.312055400000    -0.244666195217     0.387311009326    -0.450560151847
H     -0.333822900000    -1.642277100000    -0.080890100000    -0.257624556123     0.537514867297     0.201780191263
H      0.278986200000     0.011835200000     0.378896000000    -0.124492824426    -0.533452523997    -0.418884158519
H     -1.413204900000    -0.140461900000    -0.030742900000     0.213401578425    -0.471591777287    -0.590016797796
C     -0.417244300000    -0.554398100000    -0.286165100000     0.413433419407     0.079961314326     1.257063852094
5
Properties=species:S:1:pos:R:3:forces:R:3 energy=-1101.556133656251 pbc="F F F"
H     -0.098348500000    -0.427592700000    -1.299874600000    -0.196997939024     0.467015213316    -0.841676394137
H     -0.332797300000    -1.643292400000    -0.094458500000    -0.257213179587     0.526870499409     0.296036840240
H      0.293720100000     0.004606000000     0.360570500000    -0.161362446530    -0.414461860749    -0.191855732315
H     -1.421534500000    -0.152838400000    -0.043213000000     0.255464829306    -0.367513513496    -0.488818169762
C     -0.418453200000    -0.552499800000    -0.283773900000     0.360211579969    -0.212424559151     1.225902079437
5
Properties=species:S:1:pos:R:3:forces:R:3 energy=-1101.571519790251 pbc="F F F"
H     -0.098601300000    -0.429216400000    -1.298969200000    -0.233507606658     0.444595192064    -0.807069342985
H     -0.335329300000    -1.637180500000    -0.103907900000    -0.218543785135     0.303081663431     0.367256403160
H      0.306341000000    -0.008274600000     0.339679800000    -0.075230484153    -0.165939010501     0.137862561870
H     -1.426477400000    -0.170253700000    -0.062436100000     0.136422743991    -0.171184061344    -0.308943779080
C     -0.419229800000    -0.550842000000    -0.279999500000     0.390756287821    -0.410913738120     0.610482780498
5
Properties=species:S:1:pos:R:3:forces:R:3 energy=-1101.580735742470 pbc="F F F"
H     -0.102195500000    -0.424718100000    -1.308918700000    -0.328329898373     0.333832059551    -0.397698266878
H     -0.340887100000    -1.626985500000    -0.108261100000    -0.149843903502    -0.056101475196     0.398161065482
H      0.317966100000    -0.023424500000     0.320717400000     0.057387026873     0.127269616049     0.464289843760
H     -1.429612400000    -0.190015200000    -0.085936500000    -0.067774284425     0.068442771297    -0.087417514054
C     -0.419540000000    -0.549654200000    -0.275544600000     0.488149682890    -0.473905770306    -0.377437972444
5
Properties=species:S:1:pos:R:3:forces:R:3 energy=-1101.571094748401 pbc="F F F"
H     -0.110350800000    -0.415599100000    -1.324311200000    -0.393584501511     0.175914891517     0.123361538950
H     -0.348529900000    -1.617558700000    -0.107098600000    -0.069265524371    -0.398932396488     0.377437972444
H      0.330293700000    -0.036880100000     0.308102600000     0.103821153456     0.346276199787     0.659899386972
H     -1.433637900000    -0.208846900000    -0.110667500000    -0.221680531227     0.282409992461     0.129892141471
C     -0.419276600000    -0.549010600000    -0.271525700000     0.580298027116    -0.405822953478    -1.290539617770
5
Properties=species:S:1:pos:R:3:forces:R:3 energy=-1101.556078417137 pbc="F F F"
H     -0.123905900000    -0.404020300000    -1.338136700000    -0.365405208745     0.014603867054     0.512318054422
H     -0.357153800000    -1.613487000000    -0.100715700000     0.002519681287    -0.546410884903     0.300767670412
H      0.343853200000    -0.045675800000     0.304480800000    -0.034709895286     0.406748550686     0.647609512938
H     -1.440562600000    -0.223823900000    -0.133622000000    -0.204042762215     0.411325114657     0.312131947239
C     -0.418337600000    -0.548839000000    -0.268981300000     0.601278230489    -0.286420913694    -1.772775762944
5
Properties=species:S:1:pos:R:3:forces:R:3 energy=-1101.550119395712 pbc="F F F"
H     -0.142455200000    -0.392200200000    -1.345088800000    -0.233044808054    -0.115236852350     0.645038409583
H     -0.365766500000    -1.616726700000    -0.090179000000     0.054507391116    -0.409371076107     0.173960852967
H      0.356744000000    -0.048951200000     0.309716000000    -0.325398840549     0.318971082162     0.456525111629
H     -1.450124100000    -0.233161200000    -0.152257300000    -0.001902616482     0.438167433678     0.450971528384
C     -0.416702900000    -0.549011100000    -0.268469800000     0.505890296036    -0.232684853584    -1.726701590831
5
Properties=species:S:1:pos:R:3:forces:R:3 energy=-1101.549393668047 pbc="F F F"
H     -0.164175100000    -0.381929500000    -1.343344600000    -0.020517404769    -0.190467336503     0.490206565574
H     -0.373636800000    -1.625458100000    -0.077240600000     0.088651643664    -0.068802725767     0.017689191079
H      0.365066000000    -0.047834400000     0.321257800000    -0.626937841967     0.166247542904     0.189953115832
H     -1.459618300000    -0.236452200000    -0.164624300000     0.279376090503     0.388082340332     0.548364923453
C     -0.414486300000    -0.549468500000    -0.269946500000     0.279376090503    -0.295316931301    -1.246162373871
5
Properties=species:S:1:pos:R:3:forces:R:3 energy=-1101.546040136833 pbc="F F F"
H     -0.186140700000    -0.374251400000    -1.335020600000     0.227851179278    -0.202705788471     0.095027979983
H     -0.380277900000    -1.635134700000    -0.064050500000     0.111842995922     0.290071880457    -0.134571549576
H      0.364761100000    -0.044363100000     0.335495400000    -0.799613143257     0.034761317353    -0.048439587199
H     -1.465271900000    -0.234350000000    -0.169363900000     0.501005199663     0.302053222089     0.600404055348
C     -0.411950500000    -0.550279900000    -0.272863900000    -0.041034809538    -0.424334897631    -0.512369476490
5
Properties=species:S:1:pos:R:3:forces:R:3 energy=-1101.544603375651 pbc="F F F"
H     -0.204945600000    -0.369354400000    -1.325467200000     0.449994509109    -0.166658919440    -0.381088939208
H     -0.385361600000    -1.640923900000    -0.052700200000     0.127372460183     0.502804972011    -0.248008629577
H      0.353496900000    -0.040318300000     0.349166300000    -0.768914169204    -0.023808417063    -0.192164264717
H     -1.464089100000    -0.228019200000    -0.165758500000     0.570219301966     0.213864377029     0.598295750598
C     -0.409464700000    -0.551587600000    -0.276383300000    -0.378672102054    -0.526047746336     0.222914660837
5
Properties=species:S:1:pos:R:3:forces:R:3 energy=-1101.556644413967 pbc="F F F"
H     -0.217556400000    -0.366782900000    -1.321037600000     0.580040916781    -0.123207272749    -0.675326007099
H     -0.388669400000    -1.639943200000    -0.044745100000     0.135754257119     0.485424313334    -0.295779729904
H      0.331710300000    -0.036501600000     0.360289400000    -0.527898940751     0.006222070118    -0.213607266694
H     -1.455131900000    -0.218674900000    -0.153846900000     0.459764701856     0.141667794834     0.534789497741
C     -0.407417400000    -0.553502500000    -0.279671000000    -0.647609512938    -0.510055483470     0.649820661822
5
Properties=species:S:1:pos:R:3:forces:R:3 energy=-1101.580526214797 pbc="F F F"
H     -0.222197000000    -0.365976000000    -1.325604800000     0.580760825720    -0.110917398714    -0.585748766228
H     -0.390085400000    -1.632436900000    -0.040842200000     0.136834120528     0.236644352750    -0.268166079877
H      0.302717000000    -0.032516700000     0.368548200000    -0.129377920800     0.104541062395    -0.127732414653
H     -1.439909600000    -0.207323200000    -0.134517100000     0.201420236793     0.089011598134     0.410605205717
C     -0.406119200000    -0.556000000000    -0.282245300000    -0.789740106376    -0.319125348364     0.570990632973
5
Properties=species:S:1:pos:R:3:forces:R:3 energy=-1101.594186874809 pbc="F F F"
H     -0.218838500000    -0.366758900000    -1.337978500000     0.467426589852    -0.128195213257    -0.164807725025
H     -0.389592200000    -1.621791000000    -0.040620600000     0.131846180020    -0.157814323901    -0.178640261072
H      0.271963600000    -0.027059400000     0.375063500000     0.311771992770     0.208516482052    -0.004730830172
H     -1.421940800000    -0.194717600000    -0.109496200000    -0.119659150120     0.042371783283     0.234947424536
C     -0.405736100000    -0.558856500000    -0.284186200000    -0.791437034590     0.035069849756     0.113231391733
5
Properties=species:S:1:pos:R:3:forces:R:3 energy=-1101.583472663676 pbc="F F F"
H     -0.209006600000    -0.369330600000    -1.352572200000     0.291820230738    -0.140125132822     0.333317838880
H     -0.387258500000    -1.613316200000    -0.042875700000     0.121561766602    -0.516328975656    -0.068545615432
H      0.245452000000    -0.018783900000     0.381427100000     0.647918045340     0.226205673131     0.046228438314
H     -1.405580300000    -0.181542400000    -0.081227900000    -0.382991555690    -0.024528326002     0.021905800581
C     -0.406272500000    -0.561665000000    -0.285992400000    -0.678514175259     0.454468228946    -0.333060728545
5
Properties=species:S:1:pos:R:3:forces:R:3 energy=-1101.562300300552 pbc="F F F"
H     -0.195094500000    -0.373822900000    -1.362696200000     0.109837535305    -0.117088046765     0.667047054298
H     -0.383230100000    -1.611778700000    -0.046130800000     0.104335374127    -0.627966283309     0.008227530734
H      0.227769500000    -0.007514900000     0.388264200000     0.779147160555     0.098113304009    -0.047102613455
H     -1.394393400000    -0.168758700000    -0.052674600000    -0.487635462219    -0.132051868288    -0.210624786803
C     -0.407601100000    -0.563948300000    -0.288153800000    -0.505890296036     0.778735784018    -0.417701450976
5
Properties=species:S:1:pos:R:3:forces:R:3 energy=-1101.547894864904 pbc="F F F"
H     -0.179602200000    -0.379905400000    -1.363815400000    -0.036406823500    -0.051936287761     0.715280953229
H     -0.377753300000    -1.618639200000    -0.049345100000     0.075898971026    -0.409011121638     0.023397040526
H      0.220766100000     0.004992600000     0.394309800000     0.713686869149    -0.143467567182    -0.250476888798
H     -1.389827500000    -0.157862400000    -0.027065400000    -0.417598606842    -0.270788605298    -0.437807479208
C     -0.409525100000    -0.565338600000    -0.290761400000    -0.335683253967     0.874895049477    -0.050290781614
5
Properties=species:S:1:pos:R:3:forces:R:3 energy=-1101.539767096013 pbc="F F F"
H     -0.164549400000    -0.386677800000    -1.355264600000    -0.122538785877     0.044942886637     0.467735122255
H     -0.371227100000    -1.630985200000    -0.052285500000     0.035686914561     0.014295334651    -0.006222070118
H      0.223627400000     0.015478700000     0.396850800000     0.536280737687    -0.395949916597    -0.452411346262
H     -1.390989300000    -0.150745400000    -0.007540000000    -0.244923305552    -0.398315331683    -0.624315316546
C     -0.411847900000    -0.565723500000    -0.293398800000    -0.204402716685     0.734667072522     0.614853656201
5
Properties=species:S:1:pos:R:3:forces:R:3 energy=-1101.533914198993 pbc="F F F"
H     -0.151141200000    -0.392811900000    -1.340407400000    -0.148352663556     0.149175416629     0.015066665658
H     -0.364208400000    -1.643159600000    -0.055317200000    -0.010747212022     0.416313055165    -0.040366322666
H      0.233977400000     0.020526100000     0.393181700000     0.338511467657    -0.559112135475    -0.549290520661
H     -1.395583500000    -0.149134800000     0.003335000000    -0.073019335268    -0.464906908565    -0.731838858832
C     -0.414414400000    -0.565257600000    -0.295310300000    -0.106649367146     0.458324883977     1.306326192367
5
Properties=species:S:1:pos:R:3:forces:R:3 energy=-1101.537679982705 pbc="F F F"
H     -0.139779600000    -0.396891000000    -1.325347700000    -0.149021150428     0.223788835978    -0.441561290106
H     -0.357333900000    -1.649735400000    -0.058886000000    -0.052604774634     0.623801095875    -0.050702158151
H      0.249117500000     0.017912000000     0.382002400000     0.182702604372    -0.578549676835    -0.491337851050
H     -1.401297400000    -0.153926100000     0.004083400000     0.017689191079    -0.438630232282    -0.734769916656
C     -0.417105500000    -0.564253700000    -0.295712600000     0.001079863409     0.169332866929     1.718011261493
5
Properties=species:S:1:pos:R:3:forces:R:3 energy=-1101.559453989574 pbc="F F F"
H     -0.130545400000    -0.397915700000    -1.316187400000    -0.183525357446     0.231656412243    -0.659899386972
H     -0.351180800000    -1.647888000000    -0.063125000000    -0.081349710137     0.564974251123    -0.027870760363
H      0.266901700000     0.007374700000     0.364117700000     0.099193167418    -0.445829321674    -0.284209764809
H     -1.406898900000    -0.164748000000    -0.005329900000    -0.005245050843    -0.316811355344    -0.628840458449
C     -0.419789100000    -0.563042200000    -0.294146900000     0.170721262740    -0.034195674615     1.600511838191
5
Properties=species:S:1:pos:R:3:forces:R:3 energy=-1101.588479558704 pbc="F F F"
H     -0.123957700000    -0.395788000000    -1.315852800000    -0.280198843576     0.162339465805    -0.532475504722
H     -0.346145500000    -1.638422300000    -0.067723900000    -0.092199766293     0.256750380983     0.020825937172
H      0.286156300000    -0.009269500000     0.342365000000     0.082789528016    -0.196946516957     0.017534924878
H     -1.412678100000    -0.179927000000    -0.023448100000    -0.115031164081    -0.127423882250    -0.437344680605
C     -0.422265300000    -0.561856800000    -0.290754000000     0.404537401801    -0.094976557916     0.932024966015
5
Properties=species:S:1:pos:R:3:forces:R:3 energy=-1101.599717861132 pbc="F F F"
H     -0.121321900000    -0.391444600000    -1.322706100000    -0.398829552354     0.043605912893    -0.177920352133
H     -0.342385400000    -1.625530400000    -0.072026600000    -0.088445955396    -0.192112842650     0.073584978006
H      0.306590600000    -0.028624800000     0.320858200000     0.082223885278     0.090399993945     0.319073926296
H     -1.420070900000    -0.196875700000    -0.047644800000    -0.224920121454     0.075179062086    -0.206253911100
C     -0.424266400000    -0.560769100000    -0.286292000000     0.629817477724    -0.017226392475    -0.008484641070
5
Properties=species:S:1:pos:R:3:forces:R:3 energy=-1101.586267545134 pbc="F F F"
H     -0.124212200000    -0.386493600000    -1.332046000000    -0.468197920859    -0.078315808179     0.184913753257
H     -0.339863600000    -1.615255600000    -0.075326400000    -0.082840950083    -0.576595638286     0.101404316302
H      0.328097900000    -0.046784100000     0.303698800000     0.015169509792     0.318302595290     0.518025903870
H     -1.430483700000    -0.212829500000    -0.074741000000    -0.225177231789     0.229702373693     0.017586346945
C     -0.425536200000    -0.559696900000    -0.281826900000     0.760738060537     0.107009321615    -0.821930320374
5
Properties=species:S:1:pos:R:3:forces:R:3 energy=-1101.565526482479 pbc="F F F"
H     -0.133546300000    -0.382598800000    -1.338979300000    -0.442641153515    -0.165939010501     0.394921475255
H     -0.338519200000    -1.612720100000    -0.077265000000    -0.091119902884    -0.679953993137     0.079909892259
H      0.349673900000    -0.060634900000     0.293606500000    -0.171544015814     0.421352417739     0.559009291341
H     -1.443855200000    -0.225664100000    -0.101628600000    -0.063351986655     0.301950377955     0.210161988199
C     -0.425923600000    -0.558509700000    -0.278289300000     0.768502792667     0.122538785877    -1.244002647053
5
Properties=species:S:1:pos:R:3:forces:R:3 energy=-1101.550815190853 pbc="F F F"
H     -0.148961100000    -0.380964500000    -1.340637400000    -0.316759933277    -0.199414776177     0.387670963795
H     -0.338471200000    -1.619295200000    -0.078137700000    -0.116008183356    -0.439812939825     0.014038224316
H      0.368743300000    -0.068727700000     0.291181600000    -0.444543769997     0.403560382526     0.463055714150
H     -1.457987200000    -0.234356500000    -0.125610100000     0.204454138752     0.301076202815     0.370907369924
C     -0.425417100000    -0.557199000000    -0.276172300000     0.672446371342    -0.065357447272    -1.235569428050
5
Properties=species:S:1:pos:R:3:forces:R:3 energy=-1101.539001367610 pbc="F F F"
H     -0.168722200000    -0.382055800000    -1.337108400000    -0.114774053746    -0.176172001852     0.174989294309
H     -0.340048800000    -1.631802500000    -0.078825400000    -0.141462106566    -0.006839134923    -0.061963590844
H      0.381607500000    -0.071247500000     0.295162200000    -0.700882774443     0.318611127693     0.299173586332
H     -1.469276100000    -0.238875800000    -0.144429100000     0.455599514422     0.262458230430     0.503679147151
C     -0.424127100000    -0.555979600000    -0.275477900000     0.501313732065    -0.398109643415    -0.915775592814
5
Properties=species:S:1:pos:R:3:forces:R:3 energy=-1101.528787573866 pbc="F F F"
H     -0.190055600000    -0.385563300000    -1.331271500000     0.116316715759    -0.109631847037    -0.156528772223
H     -0.343583900000    -1.644451200000    -0.080346800000    -0.147632754617     0.390653443686    -0.109426158769
H      0.384797600000    -0.069311700000     0.303338200000    -0.837614050837     0.227182692406     0.138428204608
H     -1.474331900000    -0.239722800000    -0.156234800000     0.582097799464     0.219983603013     0.602203827697
C     -0.422251900000    -0.555228200000    -0.275848600000     0.286575179895    -0.727827937599    -0.474779945446
5
Properties=species:S:1:pos:R:3:forces:R:3 energy=-1101.530556858185 pbc="F F F"
H     -0.209794500000    -0.390588900000    -1.327575000000     0.316348556741    -0.027305117625    -0.441921244576
H     -0.349152200000    -1.651865000000    -0.083341100000    -0.125366999567     0.589862531595    -0.105929458206
H      0.376466400000    -0.064155900000     0.313514300000    -0.796630663366     0.168612957990     0.028899201705
H     -1.471439100000    -0.237471100000    -0.159663800000     0.535200874278     0.192318530918     0.652957407915
C     -0.420039700000    -0.555319400000    -0.276787500000     0.070499653981    -0.923437480811    -0.134108750972
5
Properties=species:S:1:pos:R:3:forces:R:3 energy=-1101.551882421413 pbc="F F F"
H     -0.225200700000    -0.396013700000    -1.329802500000     0.433950824177     0.041446186075    -0.505273231231
H     -0.356445400000    -1.651327300000    -0.087752600000    -0.076567457898     0.526253434604    -0.046742658985
H      0.357189900000    -0.056583100000     0.324179300000    -0.576029995548     0.156528772223    -0.009410238278
H     -1.461236500000    -0.232506200000    -0.154022000000     0.330798157593     0.181365630628     0.641233176618
C     -0.417741200000    -0.556475700000    -0.277912800000    -0.111997262123    -0.905542601463    -0.079961314326
5
Properties=species:S:1:pos:R:3:forces:R:3 energy=-1101.581132212364 pbc="F F F"
H     -0.234643900000    -0.400889600000    -1.338774100000     0.453902586208     0.083663703156    -0.292231607275
H     -0.364789700000    -1.643705300000    -0.092765700000    -0.010130147217     0.219932180946     0.057284182739
H      0.329994300000    -0.046783400000     0.334782500000    -0.229959484029     0.173703742632     0.010027303083
H     -1.446501100000    -0.224999300000    -0.139482900000     0.042371783283     0.172161080619     0.558032272066
C     -0.415570500000    -0.558673600000    -0.279163100000    -0.256133316178    -0.649563551487    -0.332957884411
5
Properties=species:S:1:pos:R:3:forces:R:3 energy=-1101.596214939409 pbc="F F F"
H     -0.237820800000    -0.404616700000    -1.351650900000     0.397081202073     0.106597945079     0.078624340581
H     -0.373269700000    -1.633160900000    -0.096953400000     0.060266662630    -0.216229792115     0.180337189286
H      0.299605700000    -0.034570700000     0.345533500000     0.139096691480     0.173343788162     0.035121271823
H     -1.431137100000    -0.215113600000    -0.117215600000    -0.215612727310     0.135651412985     0.400937857104
C     -0.413699200000    -0.561615900000    -0.280816200000    -0.380883250939    -0.199260509976    -0.695226347063
5
Properties=species:S:1:pos:R:3:forces:R:3 energy=-1101.590780553506 pbc="F F F"
H     -0.235484300000    -0.406858400000    -1.363469000000     0.299584962869     0.123104428615     0.416313055165
H     -0.380917300000    -1.625547900000    -0.098644100000     0.120224792858    -0.567596776545     0.279376090503
H      0.271059800000    -0.020018900000     0.356703300000     0.420632508800     0.098216148143    -0.000668486872
H     -1.418631300000    -0.203394000000    -0.089409200000    -0.338357201455     0.044840042503     0.178434572804
C     -0.412275800000    -0.564787400000    -0.283268500000    -0.502085063071     0.301436157284    -0.873558075733
5
Properties=species:S:1:pos:R:3:forces:R:3 energy=-1101.576735124496 pbc="F F F"
H     -0.228960200000    -0.407375000000    -1.369667300000     0.194889634273     0.140485087291     0.576852748621
H     -0.386903300000    -1.625521100000    -0.096504700000     0.161156758262    -0.614905078268     0.309098045281
H      0.248232100000    -0.004205400000     0.367755200000     0.558186538267    -0.071888049792    -0.126498285043
H     -1.410669600000    -0.191113000000    -0.059156600000    -0.297373813984    -0.100067342558    -0.088137422993
C     -0.411442200000    -0.567619900000    -0.286710300000    -0.616807694750     0.646118272992    -0.671726462403
5
Properties=species:S:1:pos:R:3:forces:R:3 energy=-1101.561719065347 pbc="F F F"
H     -0.219686800000    -0.405922200000    -1.368063800000     0.107163587817     0.159305563846     0.502547861675
H     -0.390654500000    -1.633689100000    -0.090141600000     0.183319669178    -0.314600206460     0.250219778462
H      0.233076600000     0.010538800000     0.376975300000     0.572944671522    -0.294082801690    -0.302361754492
H     -1.406754600000    -0.180253000000    -0.030144100000    -0.155757441217    -0.260709880149    -0.358566073822
C     -0.411331800000    -0.569720900000    -0.290904600000    -0.707464799031     0.709573103782    -0.092096922159
5
Properties=species:S:1:pos:R:3:forces:R:3 energy=-1101.543447163859 pbc="F F F"
H     -0.208877500000    -0.402241000000    -1.359665200000     0.048336743065     0.174783606041     0.222863238770
H     -0.391855700000    -1.646066100000    -0.080352300000     0.190827290973     0.152826383393     0.124955623030
H      0.225872000000     0.021200200000     0.381995200000     0.524710772591    -0.487789728420    -0.448503269163
H     -1.405025300000    -0.172999300000    -0.006099500000    -0.015735152530    -0.382734445354    -0.582920552538
C     -0.412048600000    -0.571010100000    -0.295187800000    -0.748139654099     0.542657074006     0.683347849565
5
Properties=species:S:1:pos:R:3:forces:R:3 energy=-1101.527194075100 pbc="F F F"
H     -0.197364100000    -0.396130800000    -1.348245500000     0.011055744424     0.173240944028    -0.139868022486
H     -0.390398100000    -1.656399900000    -0.068836800000     0.186456415270     0.541680054731    -0.021083047507
H      0.226003700000     0.025144600000     0.380849100000     0.465318285102    -0.585183123490    -0.497199966698
H     -1.403613200000    -0.171010000000     0.009887300000     0.042731737752    -0.423049345953    -0.716875037308
C     -0.413637300000    -0.571668800000    -0.298675500000    -0.705562182548     0.293105782416     1.374666119530
5
Properties=species:S:1:pos:R:3:forces:R:3 energy=-1101.528272734442 pbc="F F F"
H     -0.185703600000    -0.387640700000    -1.338661900000    -0.033167233273     0.132051868288    -0.398726708220
H     -0.386341200000    -1.659432200000    -0.057589300000     0.171595437881     0.690289828623    -0.144598852658
H      0.232669900000     0.021044600000     0.372886100000     0.420272554330    -0.554484149437    -0.421918060477
H     -1.401741000000    -0.174828900000     0.015970800000    -0.016352217335    -0.364068235001    -0.734615650455
C     -0.416044000000    -0.571977600000    -0.300582500000    -0.542502807805     0.096107843392     1.699705005609
5
Properties=species:S:1:pos:R:3:forces:R:3 energy=-1101.551497380300 pbc="F F F"
H     -0.174551600000    -0.377369100000    -1.334368800000    -0.113591346203     0.033938564280    -0.413227731139
H     -0.379891400000    -1.653143600000    -0.048307500000     0.147787020818     0.544302580153    -0.217875298262
H      0.245239200000     0.009320500000     0.359139700000     0.388339450667    -0.403971759063    -0.241015228453
H     -1.400219600000    -0.183643100000     0.011901400000    -0.178331728670    -0.217361077591    -0.637170833318
C     -0.419075200000    -0.572159000000    -0.300541900000    -0.244357662814     0.042937426021     1.509340513240
5
Properties=species:S:1:pos:R:3:forces:R:3 energy=-1101.579084827679 pbc="F F F"
H     -0.165030200000    -0.366677500000    -1.335595700000    -0.226411361399    -0.110146067708    -0.204402716685
H     -0.371379100000    -1.639534300000    -0.042008900000     0.117190890899     0.142593392042    -0.233559028725
H      0.263231400000    -0.007973600000     0.342074800000     0.341853902018    -0.178794527274    -0.012392718169
H     -1.401233300000    -0.195447300000    -0.000993600000    -0.370290305119    -0.025916721814    -0.456576533696
C     -0.422385400000    -0.572271900000    -0.298767200000     0.137811139802     0.171955392351     0.906519620738
5
Properties=species:S:1:pos:R:3:forces:R:3 energy=-1101.589989790629 pbc="F F F"
H     -0.158670700000    -0.357534700000    -1.339607100000    -0.331209534130    -0.259578594673     0.072402270463
H     -0.361235500000    -1.624060900000    -0.038934300000     0.077544477172    -0.367770623831    -0.209544923394
H      0.285941200000    -0.027765200000     0.324802300000     0.235821599677     0.052090553963     0.187433434545
H     -1.407323700000    -0.207641600000    -0.020250900000    -0.468814985664     0.142284859639    -0.248420006114
C     -0.425536700000    -0.572169100000    -0.295936600000     0.486247066408     0.432716694566     0.198077802433
5
Properties=species:S:1:pos:R:3:forces:R:3 energy=-1101.584530642365 pbc="F F F"
H     -0.156887800000    -0.351977500000    -1.342714100000    -0.383042977757    -0.367667779697     0.258704419532
H     -0.350024500000    -1.613573500000    -0.038801500000     0.020260294434    -0.737443864145    -0.190467336503
H      0.311844300000    -0.046897100000     0.310049900000     0.037640953110     0.225228653856     0.299842073205
H     -1.419741100000    -0.217944000000    -0.043013200000    -0.367359247294     0.226668471735    -0.061809324643
C     -0.428130500000    -0.571561100000    -0.292852400000     0.692346711306     0.652854563781    -0.306629786061
5
Properties=species:S:1:pos:R:3:forces:R:3 energy=-1101.575640138323 pbc="F F F"
H     -0.160380500000    -0.351485200000    -1.342401700000    -0.359080294493    -0.404588823868     0.272691221781
H     -0.338565400000    -1.612982100000    -0.041389900000    -0.067517174090    -0.747008368623    -0.213967221163
H      0.338183000000    -0.062974000000     0.299382200000    -0.236798618952     0.315474381600     0.315577225734
H     -1.437067800000    -0.225184700000    -0.066682100000    -0.069368368505     0.215921259713     0.089577240872
C     -0.429926500000    -0.570210500000    -0.290094100000     0.732250235368     0.620047284977    -0.463724201022
5
Properties=species:S:1:pos:R:3:forces:R:3 energy=-1101.565069331194 pbc="F F F"
H     -0.168816700000    -0.356568100000    -1.338474000000    -0.262766762832    -0.364428189470     0.113951300673
H     -0.328082200000    -1.622421700000    -0.047014000000    -0.180285767219    -0.397338312408    -0.268371768145
H      0.361195500000    -0.074711300000     0.293061100000    -0.519002923144     0.339077110395     0.268628878481
H     -1.455281600000    -0.229467900000    -0.089121600000     0.299996339406     0.148558351824     0.218698051336
C     -0.430871900000    -0.568162300000    -0.287852700000     0.661802003454     0.274079617592    -0.332700774075
5
Properties=species:S:1:pos:R:3:forces:R:3 energy=-1101.548329430739 pbc="F F F"
H     -0.180876400000    -0.366683200000    -1.333071700000    -0.120070526656    -0.264052314510    -0.146398625007
H     -0.320120800000    -1.637261200000    -0.056365500000    -0.288683484646     0.093896694507    -0.298710787729
H      0.377030500000    -0.081736500000     0.290483000000    -0.723817016366     0.331209534130     0.205225469758
H     -1.469396400000    -0.231672300000    -0.108509000000     0.583486195276     0.078572918514     0.337225915979
C     -0.431043100000    -0.565808200000    -0.285992200000     0.548827722057    -0.239472566440    -0.097084862667
5
Properties=species:S:1:pos:R:3:forces:R:3 energy=-1101.533724535632 pbc="F F F"
H     -0.194611500000    -0.380462800000    -1.329686600000     0.027459383826    -0.134828659911    -0.377180862109
H     -0.316156600000    -1.650909100000    -0.069816300000    -0.358257541419     0.484190183724    -0.259630016740
H      0.382893000000    -0.084123300000     0.290802200000    -0.787683223692     0.321696451718     0.160231161054
H     -1.475565300000    -0.232734100000    -0.123189600000     0.676148760173     0.043451646691     0.442075510777
C     -0.430568000000    -0.563731700000    -0.284256300000     0.443669594857    -0.715075264960     0.033115811206
5
Properties=species:S:1:pos:R:3:forces:R:3 energy=-1101.536015734335 pbc="F F F"
H     -0.208005700000    -0.396131600000    -1.331383300000     0.138479626675    -0.005707849447    -0.439607251557
H     -0.317139900000    -1.658060600000    -0.086807500000    -0.368644798972     0.633005645884    -0.140896463828
H      0.377902800000    -0.081981200000     0.293418600000    -0.691575380300     0.326324437756     0.152672117192
H     -1.472524900000    -0.233131700000    -0.131710100000     0.548159235185     0.055947208994     0.520442741023
C     -0.429568300000    -0.562477700000    -0.282506400000     0.373324207077    -1.009518021120    -0.092302610427
5
Properties=species:S:1:pos:R:3:forces:R:3 energy=-1101.554656894332 pbc="F F F"
H     -0.219525800000    -0.411895200000    -1.338975700000     0.194786790139     0.111380197318    -0.283695544138
H     -0.323213200000    -1.656676000000    -0.105699000000    -0.316965621546     0.500902355528     0.040469166800
H      0.363384400000    -0.075259100000     0.298210500000    -0.460381766661     0.336968805644     0.174012275034
H     -1.462015900000    -0.232700600000    -0.132992400000     0.243997708344     0.106752211280     0.555666856980
C     -0.428126000000    -0.562386800000    -0.280891900000     0.338768577992    -1.056054991837    -0.486041378139
5
Properties=species:S:1:pos:R:3:forces:R:3 energy=-1101.572075174640 pbc="F F F"
H     -0.228373400000    -0.426111500000    -1.350378500000     0.204711249087     0.218080986531     0.009513082412
H     -0.333667000000    -1.648558600000    -0.123989100000    -0.215252772841     0.130200673873     0.251968128743
H      0.342487900000    -0.063844200000     0.305437000000    -0.170566996539     0.323290535798     0.192369952985
H     -1.448158800000    -0.230766900000    -0.126562500000    -0.117139468832     0.163059374744     0.531652751648
C     -0.426285700000    -0.563511500000    -0.279859800000     0.298093722924    -0.834631570946    -0.985658181990
5
Properties=species:S:1:pos:R:3:forces:R:3 energy=-1101.575625988402 pbc="F F F"
H     -0.234381700000    -0.437286200000    -1.361661000000     0.189953115832     0.314137407856     0.293517158952
H     -0.347106900000    -1.638734200000    -0.138765700000    -0.089217286402    -0.335066189162     0.450251619444
H      0.319154600000    -0.047983700000     0.315298700000     0.079498515722     0.240089631245     0.159665518316
H     -1.435813900000    -0.226601600000    -0.112769700000    -0.369673240313     0.175400670846     0.436213395129
C     -0.424101600000    -0.565596000000    -0.279972600000     0.188873252423    -0.394150144249    -1.339956224244
5
Properties=species:S:1:pos:R:3:forces:R:3 energy=-1101.571978029991 pbc="F F F"
H     -0.237737800000    -0.444085500000    -1.368985800000     0.168355847654     0.389676424412     0.448554691230
H     -0.361803100000    -1.633429400000    -0.147308800000     0.030081909248    -0.651157635567     0.587034317905
H      0.296804300000    -0.028870400000     0.327299400000     0.222606128435     0.063300564588     0.045354263174
H     -1.428374800000    -0.220079100000    -0.092954100000    -0.394767209054     0.106392256810     0.266366307529
C     -0.421705300000    -0.568139600000    -0.281626900000    -0.026430942485     0.091736967689    -1.347566690173
5
Properties=species:S:1:pos:R:3:forces:R:3 energy=-1101.570961412609 pbc="F F F"
H     -0.238730700000    -0.445468300000    -1.370245300000     0.151335143447     0.431431142889     0.419758333660
H     -0.376107200000    -1.636808900000    -0.147748200000     0.124030025822    -0.604517820716     0.623029764868
H      0.277450700000    -0.008949800000     0.339861700000     0.264823645516    -0.180234345152    -0.130200673873
H     -1.426216600000    -0.212151000000    -0.069476600000    -0.211653228144    -0.032858700871     0.038977926855
C     -0.419348800000    -0.570594600000    -0.284826200000    -0.328689852842     0.386025457648    -0.951925305979
5
Properties=species:S:1:pos:R:3:forces:R:3 energy=-1101.568360276220 pbc="F F F"
H     -0.237595100000    -0.440859000000    -1.365828500000     0.142387703774     0.430608389816     0.220137869214
H     -0.388699700000    -1.648233500000    -0.139597600000     0.195815231481    -0.206511021435     0.544765378757
H      0.261754000000     0.008454700000     0.350603700000     0.263075295235    -0.418318515781    -0.302978819297
H     -1.426937700000    -0.204702500000    -0.045470500000     0.044737198369    -0.187793389014    -0.203888496014
C     -0.417380400000    -0.572625700000    -0.289115500000    -0.646169695059     0.381808848147    -0.258344465063
5
Properties=species:S:1:pos:R:3:forces:R:3 energy=-1101.556877615545 pbc="F F F"
H     -0.234462000000    -0.430273700000    -1.358431000000     0.135651412985     0.382837289489    -0.064329005930
H     -0.398563800000    -1.662411100000    -0.123927400000     0.254847764500     0.311257772099     0.373169940876
H      0.249759000000     0.020095500000     0.357186000000     0.274799526532    -0.576647060353    -0.405668687277
H     -1.427118800000    -0.199829800000    -0.024277300000     0.229702373693    -0.296859593313    -0.410502361583
C     -0.416165300000    -0.574227400000    -0.293701400000    -0.895001077710     0.179103059676     0.506867315311
5
Properties=species:S:1:pos:R:3:forces:R:3 energy=-1101.544951409278 pbc="F F F"
H     -0.229445300000    -0.414386100000    -1.351861900000     0.114722631679     0.283592700004    -0.286266647493
H     -0.404873700000    -1.672393600000    -0.103086800000     0.301127624882     0.693580840916     0.153906246802
H      0.241661700000     0.023808200000     0.358215200000     0.327918521836    -0.610534202565    -0.399652305427
H     -1.424267600000    -0.199014500000    -0.008739200000     0.258807263666    -0.320565166242    -0.537771977632
C     -0.415988900000    -0.575620400000    -0.297711200000    -1.002473197929    -0.046177016247     1.069527573415
5
Properties=species:S:1:pos:R:3:forces:R:3 energy=-1101.547212403343 pbc="F F F"
H     -0.222859100000    -0.394592800000    -1.349069500000     0.062477811515     0.127783836720    -0.314188829923
H     -0.406989200000    -1.672997300000    -0.080085400000     0.328381320440     0.792156943529    -0.061346526039
H      0.238199500000     0.019122200000     0.353774600000     0.416518743433    -0.515506222582    -0.285958115090
H     -1.417994700000    -0.202574800000    -0.000611900000     0.115339696484    -0.247802941309    -0.562505991903
C     -0.416973200000    -0.577056300000    -0.300503700000    -0.922666149804    -0.156580194291     1.223896618821
5
Properties=species:S:1:pos:R:3:forces:R:3 energy=-1101.561508721333 pbc="F F F"
H     -0.215434400000    -0.373066600000    -1.350433600000    -0.020208872367    -0.075898971026    -0.138788159077
H     -0.404534600000    -1.662887000000    -0.057887700000     0.331158112063     0.567031133807    -0.229496685425
H      0.240568200000     0.007328200000     0.345406600000     0.501725108602    -0.325913061219    -0.107317854018
H     -1.410258600000    -0.209512000000    -0.000243600000    -0.156271661888    -0.096159265459    -0.486452754676
C     -0.419024100000    -0.578656900000    -0.301898400000    -0.656402686410    -0.069059836103     0.962055453196
5
Properties=species:S:1:pos:R:3:forces:R:3 energy=-1101.570499635389 pbc="F F F"
H     -0.208300800000    -0.352620800000    -1.353646800000    -0.109066204299    -0.293928535489     0.116985202631
H     -0.397473900000    -1.645151200000    -0.038818400000     0.307349695000     0.075898971026    -0.325913061219
H      0.249885200000    -0.008996100000     0.335525700000     0.519619987949    -0.107472120219     0.062889188052
H     -1.404734500000    -0.217760600000    -0.006607500000    -0.445366523071     0.084846410699    -0.342111012353
C     -0.421835300000    -0.580316600000    -0.302182600000    -0.272742643848     0.240501007782     0.487892572554
5
Properties=species:S:1:pos:R:3:forces:R:3 energy=-1101.566203229649 pbc="F F F"
H     -0.202662600000    -0.336250400000    -1.355311300000    -0.171081217210    -0.477093938465     0.298402255326
H     -0.386140500000    -1.626456800000    -0.024239700000     0.256287582379    -0.498691206643    -0.361342865445
H      0.266328800000    -0.026875200000     0.326432100000     0.410399517449     0.069779745042     0.155037532278
H     -1.405283100000    -0.224873300000    -0.017747400000    -0.594387673499     0.221166310556    -0.184759487056
C     -0.424968400000    -0.581679600000    -0.301885000000     0.098781790881     0.684427712974     0.092302610427
5
Properties=species:S:1:pos:R:3:forces:R:3 energy=-1101.560033592096 pbc="F F F"
H     -0.199363100000    -0.326469900000    -1.352999100000    -0.184810909123    -0.582457753934     0.309046623214
H     -0.371256200000    -1.614504100000    -0.014711300000     0.172263924753    -0.866873207011    -0.388802249271
H      0.288357900000    -0.043867600000     0.319390000000     0.165167679495     0.170618418606     0.147015689812
H     -1.413853300000    -0.229014300000    -0.031515600000    -0.489743766970     0.252430927347    -0.061243681905
C     -0.427998900000    -0.582247300000    -0.301449100000     0.336917383577     1.026230192925    -0.006324914252
5
Properties=species:S:1:pos:R:3:forces:R:3 energy=-1101.561728317218 pbc="F F F"
H     -0.198591000000    -0.324731400000    -1.346576800000    -0.147067111879    -0.589965375729     0.135599990918
H     -0.354009500000    -1.614183100000    -0.010681200000     0.044531510100    -0.810977420084    -0.457964929508
H      0.312610300000    -0.058545900000     0.314330300000    -0.154728999875     0.208053683448     0.074510575214
H     -1.429012200000    -0.229747600000    -0.046192200000    -0.158791343175     0.176120579785     0.020877359239
C     -0.430649000000    -0.581643600000    -0.300987200000     0.416107366896     1.016305733976     0.228879620620
5
Properties=species:S:1:pos:R:3:forces:R:3 energy=-1101.562486154318 pbc="F F F"
H     -0.199842900000    -0.331151500000    -1.338401900000    -0.076207503428    -0.509849795202    -0.156014551553
H     -0.336175700000    -1.624777500000    -0.013098700000    -0.119659150120    -0.385511236977    -0.550061851667
H      0.334719700000    -0.070350100000     0.310307900000    -0.451588593189     0.217463921726    -0.002776791623
H     -1.446317600000    -0.228063800000    -0.060612700000     0.241426604990     0.049673716809     0.080064158460
C     -0.432818300000    -0.579882400000    -0.300239500000     0.405720109344     0.628120549510     0.628686192248
5
Properties=species:S:1:pos:R:3:forces:R:3 energy=-1101.554927919736 pbc="F F F"
H     -0.202161600000    -0.344652300000    -1.332384700000    -0.004782252239    -0.379134900658    -0.422380859081
H     -0.320022400000    -1.640654200000    -0.023157800000    -0.289249127384     0.143261878914    -0.589039778521
H      0.350635300000    -0.079099300000     0.306297600000    -0.637633631922     0.235101690738    -0.036715355903
H     -1.460363900000    -0.225668100000    -0.073910400000     0.540908723725    -0.064174739729     0.140587931425
C     -0.434510600000    -0.577399600000    -0.298764400000     0.390653443686     0.064843226601     0.907445217946
5
Properties=species:S:1:pos:R:3:forces:R:3 energy=-1101.550735733606 pbc="F F F"
H     -0.204593100000    -0.363454600000    -1.332063400000     0.029156312040    -0.239061189904    -0.504347634023
H     -0.307875200000    -1.654698600000    -0.041336000000    -0.421506683941     0.528773115891    -0.518385858339
H      0.357808700000    -0.084525000000     0.301849800000    -0.664527373010     0.278193382960    -0.005605005313
H     -1.467079500000    -0.224103100000    -0.085231200000     0.633571288622    -0.120790435596     0.207282352442
C     -0.435738600000    -0.574834900000    -0.296258400000     0.423100768020    -0.447217717486     0.821107567301
5
Properties=species:S:1:pos:R:3:forces:R:3 energy=-1101.560920411167 pbc="F F F"
H     -0.206677800000    -0.385610300000    -1.338507900000     0.012032763699    -0.101969959040    -0.338151513187
H     -0.301552200000    -1.661652200000    -0.066637700000    -0.486607020877     0.647712357072    -0.332083709270
H      0.355865800000    -0.086026800000     0.297393600000    -0.530212933770     0.344476427439     0.085000676901
H     -1.465196600000    -0.224145000000    -0.093648600000     0.492829090995    -0.105775192005     0.273976773458
C     -0.436463300000    -0.572778800000    -0.292829100000     0.511906677886    -0.784289367264     0.311360616233
5
Properties=species:S:1:pos:R:3:forces:R:3 energy=-1101.575456189353 pbc="F F F"
H     -0.208631400000    -0.409181000000    -1.349501700000    -0.036201135232     0.046331282449    -0.015015243590
H     -0.301950100000    -1.659873800000    -0.096489200000    -0.472003153824     0.477145360533    -0.059958130228
H      0.346629000000    -0.082707400000     0.294159300000    -0.285341050285     0.407365615491     0.201368814726
H     -1.456629100000    -0.225598600000    -0.098246200000     0.168921490392    -0.032138791932     0.326015905354
C     -0.436583500000    -0.571623400000    -0.289058900000     0.624521004814    -0.898652044473    -0.452257080061
5
Properties=species:S:1:pos:R:3:forces:R:3 energy=-1101.576498113324 pbc="F F F"
H     -0.211085700000    -0.432076100000    -1.360724500000    -0.079652781923     0.216229792115     0.294494178227
H     -0.308871200000    -1.651688700000    -0.127136900000    -0.383917152898     0.073790666275     0.249037070919
H      0.333409000000    -0.073745500000     0.293705400000    -0.030287597516     0.416107366896     0.283438433803
H     -1.445757400000    -0.227479700000    -0.098317700000    -0.204556982886     0.059495331624     0.343550830232
C     -0.435972800000    -0.571500700000    -0.285816000000     0.698311671089    -0.765520312776    -1.170417669046
5
Properties=species:S:1:pos:R:3:forces:R:3 energy=-1101.562989837074 pbc="F F F"
H     -0.214618900000    -0.451932900000    -1.367999800000    -0.092456876629     0.393790189779     0.455445248220
H     -0.321115800000    -1.642560500000    -0.154324000000    -0.250476888798    -0.402120564648     0.535355140479
H      0.319648600000    -0.059083700000     0.297109200000     0.127578148451     0.317171309814     0.271354248036
H     -1.437591100000    -0.228575700000    -0.093641800000    -0.442949685917     0.110506022177     0.306372675725
C     -0.434552000000    -0.572256800000    -0.283917800000     0.658716679429    -0.419449801257    -1.568784422796
5
Properties=species:S:1:pos:R:3:forces:R:3 energy=-1101.550762944991 pbc="F F F"
H     -0.219403800000    -0.466301500000    -1.369134400000    -0.067517174090     0.548364923453     0.414204750414
H     -0.336862200000    -1.638848500000    -0.174104900000    -0.112048684190    -0.695226347063     0.743408823927
H      0.307507300000    -0.040119600000     0.304182600000     0.145215917464     0.100375874961     0.149792481435
H     -1.435319000000    -0.228222200000    -0.084748500000    -0.421866638410     0.080629801198     0.206613865570
C     -0.432372700000    -0.573502100000    -0.283819900000     0.456113735093    -0.034092830481    -1.514225609613
5
Properties=species:S:1:pos:R:3:forces:R:3 energy=-1101.549389042111 pbc="F F F"
H     -0.225097100000    -0.473056200000    -1.364681900000    -0.010335835485     0.647198136401     0.191804310247
H     -0.354204700000    -1.644413300000    -0.183611300000     0.004730830172    -0.605237729655     0.835197213684
H      0.297291700000    -0.019825900000     0.313280400000     0.070756764317    -0.179822968615    -0.033270077408
H     -1.438685800000    -0.226818900000    -0.073016100000    -0.175143560510    -0.015632308396     0.060523772965
C     -0.429671300000    -0.574807500000    -0.285462800000     0.109940379439     0.153649136466    -1.054358063623
5
Properties=species:S:1:pos:R:3:forces:R:3 energy=-1101.551671261057 pbc="F F F"
H     -0.230919300000    -0.470839700000    -1.357651000000     0.059649597825     0.667098476365    -0.120173370790
H     -0.371501000000    -1.658041200000    -0.181572000000     0.104232529992    -0.170207042069     0.798173325378
H      0.288064400000    -0.002016200000     0.321934400000    -0.006736290789    -0.431842519426    -0.198386334835
H     -1.444429200000    -0.225649500000    -0.060446400000     0.138171094272    -0.123155850682    -0.094102382776
C     -0.426846500000    -0.575961000000    -0.288325300000    -0.295316931301     0.057695559276    -0.385665503179
5
Properties=species:S:1:pos:R:3:forces:R:3 energy=-1101.551793984408 pbc="F F F"
H     -0.235924300000    -0.459386000000    -1.352227500000     0.113848456538     0.597010198920    -0.367050714892
H     -0.387341900000    -1.673936800000    -0.168491300000     0.199466198244     0.365405208745     0.645089831650
H      0.278820700000     0.009870100000     0.327907800000    -0.018820476555    -0.579115319573    -0.281330129052
H     -1.448350600000    -0.226151300000    -0.049158000000     0.357949009017    -0.185787928398    -0.217206811390
C     -0.424364200000    -0.577062400000    -0.291647500000    -0.652648875512    -0.197717847963     0.220189291281
5
Properties=species:S:1:pos:R:3:forces:R:3 energy=-1101.557357624394 pbc="F F F"
H     -0.239383900000    -0.439676700000    -1.351687700000     0.127115349848     0.437036148202    -0.398829552354
H     -0.400393700000    -1.684895200000    -0.146469200000     0.290328990793     0.751430666393     0.413176309072
H      0.269421000000     0.013810800000     0.330069700000     0.060060974362    -0.586520097234    -0.255156296903
H     -1.447473900000    -0.229168200000    -0.040840600000     0.395847072463    -0.174372229504    -0.280198843576
C     -0.422635900000    -0.578393600000    -0.294741300000    -0.872889588861    -0.428140130595     0.520854117559
5
Properties=species:S:1:pos:R:3:forces:R:3 energy=-1101.572773963033 pbc="F F F"
H     -0.241115600000    -0.413934800000    -1.356439400000     0.097547661271     0.201163126458    -0.185736506331
H     -0.409397700000    -1.685675000000    -0.118694500000     0.364428189470     0.845173094699     0.153392026131
H      0.260943500000     0.009694900000     0.328771300000     0.209904877863    -0.461461630070    -0.133337419966
H     -1.441284600000    -0.234537500000    -0.036365900000     0.239009767837    -0.086029118242    -0.273359708653
C     -0.421916300000    -0.580212600000    -0.297260800000    -0.911044762642    -0.498896894912     0.438681654349
5
Properties=species:S:1:pos:R:3:forces:R:3 energy=-1101.585744814409 pbc="F F F"
H     -0.241504000000    -0.385426200000    -1.363651700000     0.048850963736    -0.077338788904     0.145627294000
H     -0.413332200000    -1.675006800000    -0.088744000000     0.408445478900     0.608374475747    -0.082480995613
H      0.255422300000    -0.000785900000     0.325655700000     0.373221362943    -0.253922167293     0.030287597516
H     -1.431911200000    -0.241046600000    -0.035646900000    -0.054764501451     0.057027072403    -0.204968359423
C     -0.422251100000    -0.582595200000    -0.299288800000    -0.775856148261    -0.334294858155     0.111174509050
5
Properties=species:S:1:pos:R:3:forces:R:3 energy=-1101.581727325376 pbc="F F F"
H     -0.241192900000    -0.357988600000    -1.368902600000     0.012289874035    -0.346121933586     0.413124887005
H     -0.411592300000    -1.656139500000    -0.059875300000     0.413330575273     0.101455738370    -0.256287582379
H      0.255043700000    -0.014818000000     0.322919700000     0.464804064431    -0.042268939148     0.155551752949
H     -1.423320700000    -0.246749200000    -0.037759500000    -0.360108735835     0.206099644899    -0.104181107925
C     -0.423487300000    -0.585346100000    -0.301185100000    -0.530315777904     0.080732645332    -0.208362215851
5
Properties=species:S:1:pos:R:3:forces:R:3 energy=-1101.563150656365 pbc="F F F"
H     -0.240671200000    -0.335325400000    -1.368595000000     0.008124686600    -0.552324422619     0.488612481494
H     -0.404112000000    -1.635951500000    -0.034517400000     0.377232284176    -0.485218625066    -0.364633877739
H      0.261006500000    -0.029523200000     0.322237100000     0.415438880024     0.101815692839     0.175709203248
H     -1.419600400000    -0.249635500000    -0.041343300000    -0.518694390742     0.295471197502    -0.013164049175
C     -0.425347000000    -0.587987100000    -0.303302400000    -0.281792927656     0.639587670471    -0.286266647493
5
Properties=species:S:1:pos:R:3:forces:R:3 energy=-1101.546842328493 pbc="F F F"
H     -0.239988800000    -0.320281200000    -1.361718100000     0.042063250880    -0.657328283618     0.329975404520
H     -0.391399800000    -1.622306200000    -0.014247000000     0.298865053930    -0.857000170130    -0.454159696543
H      0.272615600000    -0.042906800000     0.323882600000     0.223017504971     0.156425928089     0.084280767961
H     -1.422854100000    -0.248505300000    -0.045166400000    -0.434053668311     0.280044577375     0.034555629085
C     -0.427548000000    -0.589887600000    -0.305719900000    -0.129994985605     1.078012214485     0.005193628776
5
Properties=species:S:1:pos:R:3:forces:R:3 energy=-1101.541887679326 pbc="F F F"
H     -0.238683700000    -0.314309000000    -1.350447000000     0.103923997590    -0.649100752883    -0.019848917897
H     -0.374554200000    -1.620155200000    -0.000380100000     0.175760625315    -0.805526680972    -0.576801326554
H      0.287262600000    -0.054169900000     0.326642100000    -0.041086231605     0.151026611045    -0.063454830790
H     -1.431949200000    -0.243571200000    -0.048559000000    -0.150049591770     0.165424789830     0.037640953110
C     -0.429913100000    -0.590558400000    -0.308098500000    -0.088600221597     1.138021766779     0.622207011795
5
Properties=species:S:1:pos:R:3:forces:R:3 energy=-1101.540770107702 pbc="F F F"
H     -0.235923000000    -0.317326900000    -1.339516000000     0.165321945696    -0.556900986590    -0.418729892318
H     -0.355296300000    -1.628859800000     0.005385500000     0.011775653364    -0.397646844811    -0.716566504906
H      0.301366000000    -0.063330800000     0.328535800000    -0.279016136033     0.134005906838    -0.192421375053
H     -1.443088300000    -0.236370800000    -0.051450500000     0.183782467781     0.007096245258     0.018049145549
C     -0.432385800000    -0.589929500000    -0.309737800000    -0.082069619076     0.813239991036     1.309462938459
5
Properties=species:S:1:pos:R:3:forces:R:3 energy=-1101.541238687769 pbc="F F F"
H     -0.230898400000    -0.328116900000    -1.334251300000     0.182599760238    -0.441252757703    -0.648843642548
H     -0.335892200000    -1.643028200000     0.001189700000    -0.167893049050     0.103821153456    -0.794059560011
H      0.311683100000    -0.070586100000     0.327822500000    -0.414410438682     0.141410684499    -0.247648675108
H     -1.451773200000    -0.229047100000    -0.054086200000     0.416930119970    -0.131897602087     0.000771331006
C     -0.434949200000    -0.588359500000    -0.309867400000    -0.017380658677     0.327764255635     1.689626280459
5
Properties=species:S:1:pos:R:3:forces:R:3 energy=-1101.553665583539 pbc="F F F"
H     -0.223410100000    -0.345112500000    -1.337679400000     0.121098967998    -0.344784959842    -0.550113273734
H     -0.318814900000    -1.655912400000    -0.013975200000    -0.326375859823     0.465009752699    -0.744488687336
H      0.316359600000    -0.075814200000     0.323753600000    -0.411068004321     0.188410453820    -0.207539462777
H     -1.454842000000    -0.223496200000    -0.056689500000     0.460895987332    -0.208670748253     0.001696928214
C     -0.437522200000    -0.586397600000    -0.308066800000     0.155397486747    -0.100067342558     1.500187385298
5
Properties=species:S:1:pos:R:3:forces:R:3 energy=-1101.577149553905 pbc="F F F"
H     -0.214310300000    -0.366940800000    -1.348476300000    -0.010798634089    -0.250733999133    -0.171184061344
H     -0.306247400000    -1.662581900000    -0.039402600000    -0.432408162164     0.573561736327    -0.556181077651
H      0.315433800000    -0.078365700000     0.316876600000    -0.276650720947     0.267240482669    -0.084383612095
H     -1.451696900000    -0.220776900000    -0.059243300000     0.300304871808    -0.208567904119     0.024374059801
C     -0.439903300000    -0.584538900000    -0.304554000000     0.419346957123    -0.381551737811     0.787271847155
5
Properties=species:S:1:pos:R:3:forces:R:3 energy=-1101.593356383308 pbc="F F F"
H     -0.205384700000    -0.392230000000    -1.361601900000    -0.162442309939    -0.114825475813     0.268320346078
H     -0.299651700000    -1.661534000000    -0.072491800000    -0.467118057450     0.413279153206    -0.259270062270
H      0.310723100000    -0.077175200000     0.308862100000    -0.067208641687     0.344322161238     0.075796126891
H     -1.444518200000    -0.220904000000    -0.061440900000    -0.004885096374    -0.145730138134     0.059032533020
C     -0.441789400000    -0.583112800000    -0.300136600000     0.701551261315    -0.497097122564    -0.143930365786
5
Properties=species:S:1:pos:R:3:forces:R:3 energy=-1101.589344064438 pbc="F F F"
H     -0.198691600000    -0.419056400000    -1.371152500000    -0.278707603630     0.080115580527     0.555821123181
H     -0.299511500000    -1.654943400000    -0.109147100000    -0.429117149870     0.045765639711     0.092405454562
H      0.305046500000    -0.071228200000     0.301870200000     0.120841857663     0.364736721873     0.202962898806
H     -1.437420800000    -0.223048800000    -0.062823500000    -0.318816815961    -0.063557674924     0.083200904552
C     -0.442857900000    -0.582253200000    -0.295874300000     0.905594023530    -0.427008845119    -0.934441803168
5
Properties=species:S:1:pos:R:3:forces:R:3 energy=-1101.571135021252 pbc="F F F"
H     -0.195820500000    -0.444716800000    -1.373223900000    -0.325913061219     0.311926258971     0.584926013154
H     -0.305320600000    -1.647776700000    -0.144522800000    -0.339539908998    -0.373272785010     0.432665272499
H      0.300929600000    -0.060299900000     0.297609800000     0.196380874219     0.279324668435     0.237004307220
H     -1.434600500000    -0.226126900000    -0.063081700000    -0.474728523379    -0.017432080744     0.071836627725
C     -0.442877800000    -0.581879800000    -0.292671500000     0.942823600104    -0.199928996848    -1.326586486800
5
Properties=species:S:1:pos:R:3:forces:R:3 energy=-1101.553279453971 pbc="F F F"
H     -0.197422000000    -0.466016500000    -1.367414800000    -0.295214087166     0.536846380425     0.350904185825
H     -0.315869400000    -1.645631900000    -0.173926200000    -0.235050268671    -0.617167649220     0.700471397907
H      0.299399200000    -0.045590100000     0.296547500000     0.134263017173     0.086646183047     0.169538555197
H     -1.438130200000    -0.229526400000    -0.062384500000    -0.382580179153    -0.035686914561     0.017432080744
C     -0.441808200000    -0.581741500000    -0.290981300000     0.778375829549     0.029259156174    -1.238551907941
5
Properties=species:S:1:pos:R:3:forces:R:3 energy=-1101.541256919398 pbc="F F F"
H     -0.203084300000    -0.479863100000    -1.356904100000    -0.202294411934     0.706179247354    -0.061397948106
H     -0.329723800000    -1.651725500000    -0.193650800000    -0.140690775560    -0.523270954713     0.857154436331
H      0.299656500000    -0.029725800000     0.297796700000    -0.007147667326    -0.155037532278     0.049159496138
H     -1.446794500000    -0.233473700000    -0.061467900000    -0.102844134181    -0.094462337245    -0.058055513745
C     -0.439839100000    -0.581588400000    -0.290711600000     0.452874144866     0.066540154815    -0.787271847155
5
Properties=species:S:1:pos:R:3:forces:R:3 energy=-1101.533305752401 pbc="F F F"
H     -0.211552800000    -0.483933400000    -1.347256000000    -0.087263247853     0.778581517817    -0.472980173098
H     -0.345554900000    -1.664799100000    -0.201515700000    -0.051627755359    -0.137296919132     0.889550338598
H      0.299827400000    -0.015991400000     0.299754300000    -0.138016828071    -0.362165618518    -0.055124455921
H     -1.456864100000    -0.238730200000    -0.061345400000     0.208670748253    -0.141822061036    -0.117602267436
C     -0.437343100000    -0.581381300000    -0.291358700000     0.068339927163    -0.137811139802    -0.243997708344
5
Properties=species:S:1:pos:R:3:forces:R:3 energy=-1101.534540332985 pbc="F F F"
H     -0.221276900000    -0.477239900000    -1.343959800000    -0.001182707543     0.730964683691    -0.655014290599
H     -0.362096600000    -1.679700100000    -0.197063300000     0.047256879656     0.331518066532     0.802235668679
H      0.298157900000    -0.007211400000     0.301018800000    -0.191084401308    -0.469997693207    -0.093228207635
H     -1.464143800000    -0.245909700000    -0.062817100000     0.409473920241    -0.135857101253    -0.132668933093
C     -0.434761500000    -0.581347600000    -0.292314900000    -0.264566535181    -0.456833644032     0.078367230246
5
Properties=species:S:1:pos:R:3:forces:R:3 energy=-1101.552114262421 pbc="F F F"
H     -0.231081400000    -0.460449600000    -1.349408300000     0.030596129919     0.563637277379    -0.481156281766
H     -0.377961100000    -1.690117800000    -0.181488000000     0.158431388706     0.669155359048     0.619738752574
H      0.293933800000    -0.004867400000     0.301074100000    -0.142079171371    -0.453594053805    -0.049570872675
H     -1.465905800000    -0.254912900000    -0.066083200000     0.426597468583    -0.062889188052    -0.093845272440
C     -0.432478600000    -0.581845000000    -0.293218700000    -0.473288705501    -0.716566504906     0.004627986038
5
Properties=species:S:1:pos:R:3:forces:R:3 energy=-1101.577766708140 pbc="F F F"
H     -0.240497200000    -0.435874000000    -1.361289200000     0.028744935504     0.304161526840    -0.051216378822
H     -0.391609600000    -1.691467300000    -0.157298200000     0.267857547474     0.749733738179     0.382734445354
H      0.287814700000    -0.008747200000     0.300510000000    -0.012855516773    -0.328381320440     0.056667117934
H     -1.461908200000    -0.264730800000    -0.070612300000     0.261686899423     0.065974512077    -0.010850056156
C     -0.430738900000    -0.583166900000    -0.294148000000    -0.545536709763    -0.791539878724    -0.377489394511
5
Properties=species:S:1:pos:R:3:forces:R:3 energy=-1101.592963450893 pbc="F F F"
H     -0.249502500000    -0.407087000000    -1.373870300000     0.032601590535     0.003753810898     0.395898494530
H     -0.401531300000    -1.682660700000    -0.127757600000     0.356303502870     0.538389042437     0.138479626675
H      0.281539300000    -0.017159100000     0.300753900000     0.136062789521    -0.146655735342     0.174269385370
H     -1.454376800000    -0.273596300000    -0.075268000000    -0.013112627108     0.218492363067     0.093691006239
C     -0.429630400000    -0.585394900000    -0.295525200000    -0.512009522020    -0.614030903127    -0.802492779014
5
Properties=species:S:1:pos:R:3:forces:R:3 energy=-1101.589215354582 pbc="F F F"
H     -0.258015500000    -0.378225200000    -1.381126700000     0.066231622413    -0.277833428490     0.658613835295
H     -0.406506400000    -1.666588000000    -0.096239800000     0.406851394820     0.096879174398    -0.073430711805
H      0.277098200000    -0.027641500000     0.303374200000     0.225177231789     0.020825937172     0.237158573421
H     -1.447006600000    -0.279432700000    -0.078623500000    -0.267394748870     0.344373583305     0.187999077283
C     -0.429119200000    -0.588320000000    -0.297824600000    -0.430916922218    -0.184399532586    -1.010546462462
5
Properties=species:S:1:pos:R:3:forces:R:3 energy=-1101.574123919893 pbc="F F F"
H     -0.265561000000    -0.353170200000    -1.379488700000     0.133388842033    -0.487943994622     0.640564689746
H     -0.405841000000    -1.649223900000    -0.065694400000     0.408496900967    -0.396566981402    -0.239626832642
H      0.275676900000    -0.037914900000     0.309195100000     0.201625925062     0.119916260455     0.198797711372
H     -1.443194200000    -0.280539400000    -0.079395000000    -0.363862546732     0.390653443686     0.241683715325
C     -0.429117800000    -0.591448700000    -0.301275400000    -0.380317608201     0.374095538083    -0.839722355588
5
Properties=species:S:1:pos:R:3:forces:R:3 energy=-1101.559126092372 pbc="F F F"
H     -0.271211300000    -0.334817700000    -1.369215300000     0.224405900783    -0.588525557851     0.335734676034
H     -0.399512100000    -1.637178500000    -0.038488700000     0.360005891700    -0.691986756837    -0.389162203741
H      0.276967500000    -0.046610600000     0.317686300000     0.079652781923     0.140125132822     0.065151759004
H     -1.444230300000    -0.276295300000    -0.076862200000    -0.250682577066     0.332237975472     0.234793158335
C     -0.429572200000    -0.594149600000    -0.305672000000    -0.413690529743     0.808714849132    -0.245283260022
5
Properties=species:S:1:pos:R:3:forces:R:3 energy=-1101.546099729768 pbc="F F F"
H     -0.273715400000    -0.324568700000    -1.354474600000     0.319176770431    -0.573407470126    -0.166710341507
H     -0.388193500000    -1.634404100000    -0.016761100000     0.265389288254    -0.636399502312    -0.556643876254
H      0.279339700000    -0.053404900000     0.327042200000    -0.073996354543     0.114054144807    -0.109374736701
H     -1.448616200000    -0.267494200000    -0.071114500000     0.000051422067     0.189644583430     0.171955392351
C     -0.430519600000    -0.595933500000    -0.310325900000    -0.510775392410     0.906108244201     0.660413607643
5
Properties=species:S:1:pos:R:3:forces:R:3 energy=-1101.532771592894 pbc="F F F"
H     -0.271784000000    -0.322265000000    -1.342051100000     0.383660042562    -0.487532618085    -0.649460707353
H     -0.373201000000    -1.640212700000    -0.002834100000     0.134417283375    -0.303801572371    -0.725205412177
H      0.280728600000    -0.058603500000     0.334898800000    -0.183936733983     0.087108981651    -0.256956069251
H     -1.453004100000    -0.256074600000    -0.062997300000     0.250168356395     0.014346756718     0.077338788904
C     -0.432065400000    -0.596683100000    -0.314203500000    -0.584411792483     0.689724185885     1.553872023340
5
Properties=species:S:1:pos:R:3:forces:R:3 energy=-1101.529252344339 pbc="F F F"
H     -0.264568800000    -0.326802800000    -1.338353900000     0.371678700930    -0.411427958791    -0.821673210039
H     -0.356345500000    -1.650209800000     0.001012000000    -0.013061205041     0.088291689194    -0.830157851109
H      0.279651800000    -0.062548700000     0.339247700000    -0.200340373385     0.088086000926    -0.327815677702
H     -1.454031500000    -0.244426300000    -0.053803000000     0.379700543396    -0.138016828071    -0.022162910916
C     -0.434286700000    -0.596631000000    -0.316297900000    -0.537874821766     0.372655720205     2.001861071832
5
Properties=species:S:1:pos:R:3:forces:R:3 energy=-1101.546305992074 pbc="F F F"
H     -0.252272100000    -0.337165000000    -1.345627800000     0.255567673440    -0.384379951501    -0.548570611721
H     -0.339662000000    -1.659122200000    -0.006625700000    -0.151592253783     0.354503730522    -0.815039763384
H      0.275892600000    -0.065215500000     0.339117100000    -0.112151528324     0.126601129177    -0.304058682706
H     -1.449954900000    -0.234639400000    -0.044896100000     0.328021365970    -0.229599529559    -0.101867114906
C     -0.437123500000    -0.596132400000    -0.316106100000    -0.319896679370     0.132771777228     1.769381906516
5
Properties=species:S:1:pos:R:3:forces:R:3 energy=-1101.572049868050 pbc="F F F"
H     -0.236490900000    -0.352915800000    -1.360256600000     0.059443909557    -0.361188599244     0.000051422067
H     -0.325064600000    -1.663319400000    -0.025519100000    -0.258138776794     0.409268231973    -0.665504392285
H      0.270653100000    -0.066082000000     0.334819300000     0.052039131896     0.188204765551    -0.203065742940
H     -1.441490800000    -0.227980900000    -0.037373900000     0.101507160437    -0.247185876504    -0.146295780872
C     -0.440322000000    -0.595465900000    -0.313885200000     0.045045730771     0.010798634089     1.014711649896
5
Properties=species:S:1:pos:R:3:forces:R:3 energy=-1101.586080058685 pbc="F F F"
H     -0.219897100000    -0.373647900000    -1.374932900000    -0.154060513003    -0.274131039659     0.513346495764
H     -0.314026300000    -1.662034700000    -0.053604300000    -0.317222731881     0.251659596341    -0.405977219679
H      0.266156600000    -0.064327900000     0.327712000000     0.227079848272     0.236387242415    -0.073327867671
H     -1.431721600000    -0.224715100000    -0.031860600000    -0.221731953294    -0.206356755234    -0.157557213565
C     -0.443461900000    -0.594776700000    -0.310483800000     0.465729661638    -0.007661887996     0.123361538950
5
Properties=species:S:1:pos:R:3:forces:R:3 energy=-1101.584366829821 pbc="F F F"
H     -0.205408300000    -0.398115900000    -1.382727000000    -0.323753334402    -0.100273030826     0.769736922277
H     -0.307372400000    -1.657393100000    -0.087302400000    -0.326478703957    -0.046845503119    -0.084897832766
H      0.264756800000    -0.059333700000     0.319540300000     0.331620910667     0.224920121454     0.025351079076
H     -1.425003800000    -0.224323400000    -0.028539900000    -0.497559921167    -0.151232299313    -0.158071434236
C     -0.446060900000    -0.594086800000    -0.306915600000     0.816016782659     0.073225023537    -0.552118734350
5
Properties=species:S:1:pos:R:3:forces:R:3 energy=-1101.576775397348 pbc="F F F"
H     -0.195357400000    -0.423913000000    -1.380137900000    -0.411530802925     0.137965406004     0.688747166610
H     -0.305249600000    -1.653406300000    -0.122189200000    -0.300819092479    -0.342368122688     0.236541508616
H      0.267853000000    -0.051290200000     0.311642800000     0.311926258971     0.127886680854     0.056512851732
H     -1.425020700000    -0.226095000000    -0.027454400000    -0.576904170688    -0.132000446221    -0.177097599060
C     -0.447718800000    -0.593304900000    -0.303954800000     0.977122118853     0.208413637918    -0.804909616167
5
Properties=species:S:1:pos:R:3:forces:R:3 energy=-1101.568538238684 pbc="F F F"
H     -0.190956900000    -0.447756900000    -1.368270100000    -0.403560382526     0.394355832517     0.295831151972
H     -0.307328600000    -1.654009300000    -0.153827000000    -0.264772223449    -0.465832505773     0.504039101621
H      0.275181900000    -0.041534300000     0.304469200000     0.177920352133    -0.035018427689     0.030904662321
H     -1.432821200000    -0.229778800000    -0.028880800000    -0.408805433369    -0.164653458824    -0.221783375361
C     -0.448251300000    -0.592284900000    -0.301896100000     0.898909154809     0.270840027366    -0.609248650888
5
Properties=species:S:1:pos:R:3:forces:R:3 energy=-1101.554753222638 pbc="F F F"
H     -0.192115500000    -0.466124100000    -1.352473200000    -0.317788374619     0.611305533572    -0.274799526532
H     -0.313119500000    -1.660829200000    -0.178508700000    -0.230885081236    -0.333574949216     0.684273446773
H      0.284945100000    -0.032277600000     0.297714200000    -0.005450739112    -0.205688268362    -0.006890556990
H     -1.446159700000    -0.235789100000    -0.033411900000    -0.082480995613    -0.214584285969    -0.264720801382
C     -0.447744800000    -0.590965700000    -0.300526400000     0.636553768513     0.142387703774    -0.138068250138
5
Properties=species:S:1:pos:R:3:forces:R:3 energy=-1101.537408685186 pbc="F F F"
H     -0.197698300000    -0.476043800000    -1.340427800000    -0.210676208870     0.731581748496    -0.758835444054
H     -0.322135700000    -1.672099800000    -0.193724200000    -0.189644583430    -0.015683730463     0.764594715568
H      0.294665000000    -0.025836500000     0.290902200000    -0.161362446530    -0.321387919316    -0.011672809230
H     -1.460656200000    -0.244762800000    -0.041601500000     0.243432065606    -0.229342419224    -0.265954930992
C     -0.446495000000    -0.589497100000    -0.299324800000     0.318199751156    -0.165373367763     0.271559936305
5
Properties=species:S:1:pos:R:3:forces:R:3 energy=-1101.533510109910 pbc="F F F"
H     -0.206287000000    -0.475874400000    -1.338557500000    -0.148404085623     0.719240452395    -0.864302103657
H     -0.333778900000    -1.683564800000    -0.198347700000    -0.124184292024     0.325244574347     0.745722816946
H      0.302220600000    -0.023785900000     0.283992700000    -0.236952885153    -0.343345141963     0.038926504787
H     -1.471900200000    -0.256866100000    -0.053437600000     0.438218855745    -0.174937872242    -0.200700327854
C     -0.444863700000    -0.588228200000    -0.297844200000     0.071219562920    -0.526459122872     0.280147421509
5
Properties=species:S:1:pos:R:3:forces:R:3 energy=-1101.550390421117 pbc="F F F"
H     -0.217024400000    -0.465785200000    -1.348247700000    -0.143056190646     0.577007014822    -0.516843196326
H     -0.347126200000    -1.690625300000    -0.192626900000    -0.029259156174     0.539623172048     0.641850241423
H      0.306567700000    -0.026427800000     0.277687400000    -0.219520804409    -0.267497593005     0.138942425278
H     -1.477231400000    -0.271333400000    -0.068009800000     0.442538309381    -0.048285320998    -0.071630939457
C     -0.443136000000    -0.587569900000    -0.296082700000    -0.050856424352    -0.800950117001    -0.192575641254
5
Properties=species:S:1:pos:R:3:forces:R:3 energy=-1101.571117878079 pbc="F F F"
H     -0.229771200000    -0.447721700000    -1.364905400000    -0.144033209920     0.344219317104     0.060986571569
H     -0.360860300000    -1.690377600000    -0.177985100000     0.085360631370     0.542708496073     0.479613619753
H      0.307916100000    -0.032736300000     0.273349200000    -0.137965406004    -0.124338558225     0.256236160312
H     -1.476572400000    -0.286418000000    -0.083537900000     0.271097137701     0.127783836720     0.098267570210
C     -0.441458400000    -0.587835400000    -0.294570500000    -0.073996354543    -0.890064559269    -0.894435434972
5
Properties=species:S:1:pos:R:3:forces:R:3 energy=-1101.578082088104 pbc="F F F"
H     -0.244478000000    -0.424876900000    -1.380802300000    -0.099553121887     0.077853009575     0.565334205593
H     -0.373401400000    -1.682793900000    -0.156655100000     0.198900555506     0.323547646133     0.292797250013
H      0.307332600000    -0.040772200000     0.272562400000    -0.054815923518     0.030647551986     0.341853902018
H     -1.472225800000    -0.299703300000    -0.097690800000     0.008844595540     0.311309194166     0.270428650829
C     -0.439863600000    -0.589124500000    -0.294097200000    -0.053427527707    -0.743305979793    -1.470362586385
5
Properties=species:S:1:pos:R:3:forces:R:3 energy=-1101.573056961447 pbc="F F F"
H     -0.260511400000    -0.400915300000    -1.389095900000     0.002519681287    -0.166350387038     0.805115304436
H     -0.383184800000    -1.670849500000    -0.131219300000     0.288786328780    -0.038258017915     0.110351755976
H      0.305909200000    -0.048432800000     0.276471500000    -0.031933103663     0.140330821090     0.349567212081
H     -1.467701200000    -0.308684000000    -0.108094500000    -0.207230930375     0.447577671956     0.409782452644
C     -0.438333500000    -0.591266500000    -0.295316600000    -0.052450508432    -0.383351510160    -1.674919569271
5
Properties=species:S:1:pos:R:3:forces:R:3 energy=-1101.567826116712 pbc="F F F"
H     -0.276459100000    -0.379204800000    -1.386502500000     0.147324222214    -0.343447986097     0.712915538142
H     -0.388973700000    -1.659415700000    -0.104221100000     0.335477565698    -0.376409531102    -0.058518312349
H      0.303939300000    -0.054216200000     0.285163200000    -0.090914214616     0.175349248779     0.261378367021
H     -1.465877000000    -0.311508400000    -0.112833800000    -0.254436387964     0.489383812500     0.486144222273
C     -0.436873700000    -0.593851200000    -0.298459000000    -0.137759717735     0.055021611787    -1.401971237155
5
Properties=species:S:1:pos:R:3:forces:R:3 energy=-1101.566609495643 pbc="F F F"
H     -0.290323800000    -0.362187500000    -1.374296800000     0.308326714275    -0.421609528075     0.303698728236
H     -0.390126200000    -1.653007100000    -0.078043300000     0.329512605916    -0.508667087659    -0.227954023412
H      0.300643400000    -0.057619000000     0.297428200000    -0.194066881199     0.146810001543     0.099964498424
H     -1.467384600000    -0.307608200000    -0.110855300000    -0.107832074689     0.422329437014     0.485115780932
C     -0.435587200000    -0.596384400000    -0.303204100000    -0.336300318772     0.361188599244    -0.660773562113
5
Properties=species:S:1:pos:R:3:forces:R:3 energy=-1101.560455096465 pbc="F F F"
H     -0.299891200000    -0.350953600000    -1.358073200000     0.450971528384    -0.398315331683    -0.300099183540
H     -0.386717800000    -1.653402400000    -0.055075500000     0.277010675416    -0.374044116016    -0.409885296778
H      0.294658300000    -0.058995600000     0.311069200000    -0.273462552787     0.092559720763    -0.082172463211
H     -1.470280700000    -0.297892700000    -0.102171600000     0.142182015505     0.271611358372     0.408342634766
C     -0.434702600000    -0.598519000000    -0.308695800000    -0.596804510652     0.408188368564     0.383454354294
5
Properties=species:S:1:pos:R:3:forces:R:3 energy=-1101.547128864388 pbc="F F F"
H     -0.303214200000    -0.345238900000    -1.345957000000     0.532424082655    -0.326478703957    -0.816788113665
H     -0.379467600000    -1.658848600000    -0.037833500000     0.193038439858    -0.081041177735    -0.579166741640
H      0.284941600000    -0.059060700000     0.323600200000    -0.270274384628     0.050753580218    -0.229959484029
H     -1.471224500000    -0.284413100000    -0.087838500000     0.360057313768     0.087057559584     0.272485533512
C     -0.434515700000    -0.600192100000    -0.313743100000    -0.815348295787     0.269657319822     1.353120273419
5
Properties=species:S:1:pos:R:3:forces:R:3 energy=-1101.543428932230 pbc="F F F"
H     -0.299199500000    -0.344142900000    -1.344774300000     0.513037963362    -0.292283029342    -0.910581964038
H     -0.369527900000    -1.665454900000    -0.028629200000     0.096879174398     0.193449816394    -0.685970374987
H      0.271566700000    -0.058373500000     0.332996600000    -0.159408407980     0.044171555631    -0.305241390249
H     -1.467289300000    -0.269695000000    -0.069725400000     0.439658673624    -0.081658242540     0.105723769938
C     -0.435273600000    -0.601547100000    -0.317251800000    -0.890218825470     0.136114211589     1.795812849001
5
Properties=species:S:1:pos:R:3:forces:R:3 energy=-1101.557382930983 pbc="F F F"
H     -0.288132100000    -0.347224500000    -1.355733000000     0.382374490885    -0.325450262616    -0.496891434295
H     -0.358225400000    -1.669524500000    -0.028910800000     0.005964959782     0.323136269597    -0.690392672757
H      0.256069800000    -0.057024200000     0.338215600000     0.044685776302     0.074047776610    -0.298607943594
H     -1.457414300000    -0.256059600000    -0.050129500000     0.334346280222    -0.198900555506    -0.058775422684
C     -0.437059000000    -0.602729200000    -0.318718100000    -0.767422929258     0.127063927781     1.544410362995
5
Properties=species:S:1:pos:R:3:forces:R:3 energy=-1101.570846308447 pbc="F F F"
H     -0.271798900000    -0.354870200000    -1.373370300000     0.175709203248    -0.364119657068     0.155088954345
H     -0.346815600000    -1.669288300000    -0.038732400000    -0.065614557607     0.266674839931    -0.584926013154
H      0.241246200000    -0.054620600000     0.339320600000     0.288683484646     0.117550845369    -0.234638892134
H     -1.443056500000    -0.245130500000    -0.031318400000     0.060472350898    -0.249037070919    -0.190981557174
C     -0.439728700000    -0.603750900000    -0.318411200000    -0.459147637051     0.228982464754     0.855251819849
5
Properties=species:S:1:pos:R:3:forces:R:3 energy=-1101.568742596193 pbc="F F F"
H     -0.253022500000    -0.367533000000    -1.388978800000    -0.046742658985    -0.334089169887     0.692346711306
H     -0.336294100000    -1.665497700000    -0.056642500000    -0.111225931117     0.057798403410    -0.391064820223
H      0.230419300000    -0.050604200000     0.337149200000     0.492829090995     0.133080309630    -0.162390887872
H     -1.427952700000    -0.237621500000    -0.015127100000    -0.297065281582    -0.242249358063    -0.277782006423
C     -0.442927100000    -0.604498200000    -0.317100500000    -0.037743797244     0.385151282508     0.138685314943
5
Properties=species:S:1:pos:R:3:forces:R:3 energy=-1101.559457527054 pbc="F F F"
H     -0.234855300000    -0.384763600000    -1.395272400000    -0.231245035706    -0.209956299930     0.907702328281
H     -0.327303800000    -1.660960300000    -0.079976100000    -0.134468705442    -0.203117165007    -0.151643675850
H      0.226357500000    -0.044801800000     0.332658000000     0.581480734659     0.083098060418    -0.127783836720
H     -1.416940500000    -0.233480900000    -0.002784400000    -0.595313270706    -0.214687130103    -0.330798157593
C     -0.446170300000    -0.604792000000    -0.315598700000     0.379443433061     0.544302580153    -0.297579502253
5
Properties=species:S:1:pos:R:3:forces:R:3 energy=-1101.558329070876 pbc="F F F"
H     -0.219839500000    -0.404843400000    -1.389300900000    -0.341288259280    -0.008587485204     0.741609051579
H     -0.320187900000    -1.659161700000    -0.105438700000    -0.149843903502    -0.374764024955     0.083200904552
H      0.230265200000    -0.037918900000     0.326319500000     0.523270954713    -0.036663933836    -0.141050730029
H     -1.414028300000    -0.232377000000     0.004931800000    -0.693786529185    -0.210881897138    -0.377952193115
C     -0.448980500000    -0.604452600000    -0.314404600000     0.661750581387     0.630743074932    -0.305549922652
5
Properties=species:S:1:pos:R:3:forces:R:3 energy=-1101.564366188979 pbc="F F F"
H     -0.209495800000    -0.424999500000    -1.373342400000    -0.360365846170     0.229753795760     0.237415683757
H     -0.315180500000    -1.662377600000    -0.129789600000    -0.172829567491    -0.350544231356     0.274182461726
H      0.241362600000    -0.031587400000     0.317985900000     0.347716017666    -0.187433434545    -0.170721262740
H     -1.420537700000    -0.234273800000     0.007344000000    -0.544559690488    -0.245848902760    -0.432253895963
C     -0.451033800000    -0.603387600000    -0.313529500000     0.730039086484     0.553918506699     0.091017058750
5
Properties=species:S:1:pos:R:3:forces:R:3 energy=-1101.562925618203 pbc="F F F"
H     -0.204111000000    -0.441963600000    -1.354258100000    -0.306886896396     0.445572211339    -0.429425682273
H     -0.312603100000    -1.670277900000    -0.150371100000    -0.203168587074    -0.137811139802     0.405308732807
H      0.257274900000    -0.027846400000     0.307298000000     0.124749934762    -0.308738090811    -0.169589977264
H     -1.434474500000    -0.239625900000     0.003719300000    -0.226771315869    -0.290380412860    -0.471437511086
C     -0.452247000000    -0.601689800000    -0.312529200000     0.612128286645     0.291203165933     0.664835905413
5
Properties=species:S:1:pos:R:3:forces:R:3 energy=-1101.553869124706 pbc="F F F"
H     -0.203015900000    -0.452794400000    -1.340990900000    -0.247288720638     0.570424990235    -0.925700051763
H     -0.312860200000    -1.680021600000    -0.165349300000    -0.223943102179     0.149483949032     0.473957192373
H      0.274965700000    -0.028334900000     0.294308800000    -0.072248004262    -0.350904185825    -0.105980880273
H     -1.451562600000    -0.248999400000    -0.006442500000     0.113745612404    -0.296345372642    -0.455908046824
C     -0.452746700000    -0.599659500000    -0.310768900000     0.429579948474    -0.072762224933     1.013477520286
5
Properties=species:S:1:pos:R:3:forces:R:3 energy=-1101.555475412823 pbc="F F F"
H     -0.205463400000    -0.455795500000    -1.340104200000    -0.251299641871     0.561426128494    -0.936395841718
H     -0.316218900000    -1.687746000000    -0.173758800000    -0.215715571445     0.375689622163     0.483675963053
H      0.291733400000    -0.033620100000     0.279912100000    -0.194221147401    -0.293774269288     0.022625709520
H     -1.467182000000    -0.262441500000    -0.022894100000     0.350184276886    -0.232530587383    -0.360160157902
C     -0.452734500000    -0.597712000000    -0.307874300000     0.310640707294    -0.410810893986     0.790048638778
5
Properties=species:S:1:pos:R:3:forces:R:3 energy=-1101.569841119847 pbc="F F F"
H     -0.211497500000    -0.451076500000    -1.351754500000    -0.309817954220     0.431945363560    -0.466809525047
H     -0.322553700000    -1.690390500000    -0.175454200000    -0.169641399331     0.448091892626     0.442486887314
H      0.305884700000    -0.042918700000     0.265877800000    -0.229188153022    -0.151232299313     0.190107382034
H     -1.478096900000    -0.279055400000    -0.044297800000     0.417752873043    -0.096004999258    -0.186816369740
C     -0.452346900000    -0.596236200000    -0.304105300000     0.290894633531    -0.633108490018     0.020723093037
5
Properties=species:S:1:pos:R:3:forces:R:3 energy=-1101.576710090021 pbc="F F F"
H     -0.221841100000    -0.440382800000    -1.369752300000    -0.344836381909     0.237878482361     0.168818646258
H     -0.331223600000    -1.686978400000    -0.170994400000    -0.089680085006     0.334757656759     0.365045254275
H      0.316891700000    -0.054283700000     0.254499500000    -0.207590884844     0.033835720146     0.351726938899
H     -1.483357000000    -0.296955900000    -0.068261400000     0.319485302833     0.090502838079     0.035481226292
C     -0.451612200000    -0.595489500000    -0.300328600000     0.322519204791    -0.697077541479    -0.921226331926
5
Properties=species:S:1:pos:R:3:forces:R:3 energy=-1101.566473438713 pbc="F F F"
H     -0.236913900000    -0.426364300000    -1.385569600000    -0.296808171246     0.037383842775     0.655014290599
H     -0.341127900000    -1.679056700000    -0.161444700000     0.008587485204     0.070859608451     0.268423190212
H      0.324990600000    -0.065195900000     0.247980500000    -0.186404993203     0.200854594055     0.456885066099
H     -1.484261900000    -0.313577900000    -0.091717400000     0.121098967998     0.286060959224     0.266983372334
C     -0.450498400000    -0.595546200000    -0.297613400000     0.353372445046    -0.595210426572    -1.647203075109
5
Properties=species:S:1:pos:R:3:forces:R:3 energy=-1101.550935737293 pbc="F F F"
H     -0.256037700000    -0.411779700000    -1.392576300000    -0.158945609377    -0.126703973311     0.833654551671
H     -0.350916900000    -1.670194000000    -0.148142200000     0.102124225242    -0.234536048000     0.165373367763
H      0.330414500000    -0.073378300000     0.247750500000    -0.217978142397     0.297990878789     0.469432050469
H     -1.483457200000    -0.326241900000    -0.111471200000    -0.065203181071     0.440327160496     0.467889388456
C     -0.448973200000    -0.596291300000    -0.296792400000     0.340002707602    -0.376923751773    -1.936297936292
5
Properties=species:S:1:pos:R:3:forces:R:3 energy=-1101.545747070205 pbc="F F F"
H     -0.277312700000    -0.398893500000    -1.388315000000     0.043143114289    -0.225125809722     0.664167418541
H     -0.359309500000    -1.664480800000    -0.132530400000     0.167173140111    -0.425980403778     0.055998631062
H      0.332712200000    -0.077492500000     0.253979200000    -0.310435019025     0.306526941926     0.384174263233
H     -1.483421500000    -0.332838300000    -0.124743500000    -0.130612050410     0.510672548276     0.608117365412
C     -0.447057600000    -0.597480300000    -0.298198500000     0.230576548834    -0.165784744300    -1.712457678247
5
Properties=species:S:1:pos:R:3:forces:R:3 energy=-1101.551274791163 pbc="F F F"
H     -0.297955600000    -0.389063000000    -1.375119800000     0.268937410883    -0.240912384319     0.182702604372
H     -0.365409200000    -1.664466200000    -0.116151500000     0.191650044046    -0.394047300114    -0.067722862358
H      0.330641700000    -0.077395800000     0.265505300000    -0.419346957123     0.245283260022     0.228211133748
H     -1.485024700000    -0.332401000000    -0.129592300000    -0.036972466238     0.480693483162     0.668641138378
C     -0.444883300000    -0.598878100000    -0.301571600000    -0.004216609501    -0.090605682213    -1.011986280341
5
Properties=species:S:1:pos:R:3:forces:R:3 energy=-1101.554657166445 pbc="F F F"
H     -0.314865000000    -0.382520400000    -1.359555200000     0.466038194041    -0.185530818062    -0.452719878665
H     -0.368866200000    -1.669733100000    -0.100734700000     0.180954254091    -0.163625017482    -0.201934457464
H      0.322757200000    -0.073899300000     0.280198100000    -0.478430912210     0.153700558533     0.047154035522
H     -1.487024600000    -0.325330800000    -0.125180900000     0.158842765242     0.366227961818     0.640153313209
C     -0.442722900000    -0.600398300000    -0.306106700000    -0.327558567366    -0.170721262740    -0.032601590535
5
Properties=species:S:1:pos:R:3:forces:R:3 energy=-1101.554514306669 pbc="F F F"
H     -0.325347200000    -0.378558700000    -1.350133500000     0.578652520969    -0.116830936430    -0.916752612089
H     -0.369810800000    -1.677222000000    -0.088130900000     0.151129455179     0.126395440908    -0.321747873785
H      0.308293200000    -0.068238600000     0.295575500000    -0.435236375854     0.071168140853    -0.112305794526
H     -1.486808000000    -0.313188000000    -0.111905400000     0.349155835544     0.203888496014     0.525070727061
C     -0.440947100000    -0.602122800000    -0.310691600000    -0.643804279973    -0.284518297212     0.826198351943
5
Properties=species:S:1:pos:R:3:forces:R:3 energy=-1101.565401854331 pbc="F F F"
H     -0.327864700000    -0.376306300000    -1.352957500000     0.573458892193    -0.107883496756    -0.886979235244
H     -0.368644900000    -1.683048600000    -0.079979800000     0.116882358497     0.327712833568    -0.393687345645
H      0.287875300000    -0.061541900000     0.309446500000    -0.271868468707     0.021905800581    -0.215509883176
H     -1.481822800000    -0.298196700000    -0.091356600000     0.436881882001     0.034915583554     0.341596791682
C     -0.439918300000    -0.604169500000    -0.314358400000    -0.855663196386    -0.276856409215     1.154476828248
5
Properties=species:S:1:pos:R:3:forces:R:3 energy=-1101.584614181319 pbc="F F F"
H     -0.322478400000    -0.375649200000    -1.367612900000     0.460176078393    -0.167944471118    -0.366125117684
H     -0.365835100000    -1.684490000000    -0.077258800000     0.088445955396     0.356663457340    -0.394561520785
H      0.263765100000    -0.054494400000     0.320377900000    -0.010592945821     0.009564504479    -0.252688037683
H     -1.470902000000    -0.282684800000    -0.066065300000     0.368901909307    -0.107729230555     0.122641630011
C     -0.439880000000    -0.606524000000    -0.316726900000    -0.907085263476    -0.090759948415     0.890373091672
5
Properties=species:S:1:pos:R:3:forces:R:3 energy=-1101.589039024801 pbc="F F F"
H     -0.310722600000    -0.377350100000    -1.387213600000     0.282204304193    -0.233816139060     0.313571765118
H     -0.361773800000    -1.681147500000    -0.079978900000     0.070756764317     0.207076664173    -0.323547646133
H      0.239553200000    -0.047292100000     0.327826100000     0.290020458390     0.014398178785    -0.242815000801
H     -1.454996000000    -0.268626300000    -0.039051500000     0.147529910483    -0.203837073947    -0.092456876629
C     -0.440892100000    -0.608973300000    -0.318075700000    -0.790768547717     0.215972681780     0.345144914311
5
Properties=species:S:1:pos:R:3:forces:R:3 energy=-1101.570599773289 pbc="F F F"
H     -0.295030300000    -0.382257000000    -1.402643300000     0.089937195341    -0.242969267003     0.812468660030
H     -0.356709700000    -1.675038600000    -0.087168800000     0.062837765985    -0.054404546982    -0.200340373385
H      0.219356900000    -0.039908900000     0.331884100000     0.551398825411     0.001285551677    -0.224045946313
H     -1.437134200000    -0.257364500000    -0.013290900000    -0.166247542904    -0.250939687402    -0.272228423177
C     -0.442820800000    -0.611166200000    -0.319009600000    -0.537977665901     0.546925105574    -0.115802495088
5
Properties=species:S:1:pos:R:3:forces:R:3 energy=-1101.546630623910 pbc="F F F"
H     -0.278046600000    -0.390474400000    -1.407110900000    -0.075230484153    -0.173960852967     0.958353064365
H     -0.350762900000    -1.669672500000    -0.097144100000     0.056410007598    -0.298967898064    -0.060215240563
H      0.206754700000    -0.032564900000     0.332775700000     0.703556721932    -0.058775422684    -0.229239575089
H     -1.421585400000    -0.249577700000     0.008711900000    -0.465318285102    -0.264926489650    -0.405360154874
C     -0.445375600000    -0.612723800000    -0.320048500000    -0.219726492678     0.796527819232    -0.262972451101
5
Properties=species:S:1:pos:R:3:forces:R:3 energy=-1101.536728944763 pbc="F F F"
H     -0.262049200000    -0.401046700000    -1.398616000000    -0.183062558842    -0.035584070427     0.712144207136
H     -0.344039700000    -1.668309700000    -0.107990700000     0.037795219312    -0.388853671338     0.056718540001
H      0.203838200000    -0.026100400000     0.330423700000     0.713584025015    -0.165424789830    -0.261841165625
H     -1.412400700000    -0.245492700000     0.025081400000    -0.635628171305    -0.271302825969    -0.500645245193
C     -0.448192100000    -0.613362800000    -0.321356800000     0.067157219620     0.860959669296    -0.006427758386
5
Properties=species:S:1:pos:R:3:forces:R:3 energy=-1101.540929566424 pbc="F F F"
H     -0.248529300000    -0.412070200000    -1.380537900000    -0.218235252732     0.142233437572     0.136474166058
H     -0.336813000000    -1.672140300000    -0.118095900000    -0.003033901958    -0.267549015072     0.128143791189
H      0.210764000000    -0.021967600000     0.324405200000     0.595159004505    -0.284466875145    -0.293568581020
H     -1.411893400000    -0.245217900000     0.034469500000    -0.617064805086    -0.285392472352    -0.569447970960
C     -0.450940600000    -0.613012100000    -0.322637900000     0.243123533204     0.695072080862     0.598244328531
5
Properties=species:S:1:pos:R:3:forces:R:3 energy=-1101.546478784376 pbc="F F F"
H     -0.238000800000    -0.421119200000    -1.360689300000    -0.200186107183     0.304110104773    -0.551193137143
H     -0.329649800000    -1.679552200000    -0.126460200000    -0.061655058441    -0.006582024588     0.153957668869
H      0.225929800000    -0.021775500000     0.314322400000     0.395589962127    -0.367204981093    -0.285598160621
H     -1.419834100000    -0.248939800000     0.035919100000    -0.434362200713    -0.298299411192    -0.606163326863
C     -0.453415200000    -0.611859900000    -0.323205900000     0.300561982144     0.367924890032     1.288945533690
5
Properties=species:S:1:pos:R:3:forces:R:3 energy=-1101.554208450690 pbc="F F F"
H     -0.230291400000    -0.426014200000    -1.348252400000    -0.195815231481     0.377026595907    -0.977019274719
H     -0.323350600000    -1.687059900000    -0.132704000000    -0.121098967998     0.253099414219     0.148815462160
H      0.246609800000    -0.026637200000     0.300316600000     0.173498054363    -0.374712602888    -0.212887357755
H     -1.433767900000    -0.256808700000     0.028944000000    -0.174269385370    -0.285032517883    -0.587805648911
C     -0.455540400000    -0.610276000000    -0.322292500000     0.317634108418     0.029516266510     1.628896819225
5
Properties=species:S:1:pos:R:3:forces:R:3 energy=-1101.574030312725 pbc="F F F"
H     -0.225416100000    -0.425785400000    -1.348846600000    -0.265543554455     0.319125348364    -0.863016551980
H     -0.318726600000    -1.691166300000    -0.136881700000    -0.163265063012     0.392658904303     0.127938102921
H      0.269751800000    -0.036641600000     0.283404300000    -0.021957222648    -0.292900094147    -0.076670302032
H     -1.450165500000    -0.268613600000     0.013825300000     0.067362907889    -0.224765855252    -0.494577441276
C     -0.457286700000    -0.608645800000    -0.319530200000     0.383248666025    -0.194221147401     1.306120504098
5
Properties=species:S:1:pos:R:3:forces:R:3 energy=-1101.594346061417 pbc="F F F"
H     -0.224318200000    -0.421204200000    -1.361010900000    -0.382528757086     0.162853686476    -0.317171309814
H     -0.316355100000    -1.689980100000    -0.139273000000    -0.176840488724     0.357280522145     0.102227069376
H      0.292649400000    -0.050659500000     0.265462900000    -0.164602036757    -0.135754257119     0.097496239204
H     -1.465717900000    -0.283506700000    -0.008132300000     0.225897140728    -0.114259833075    -0.327301457031
C     -0.458577200000    -0.607229200000    -0.315285600000     0.497868453570    -0.270068696359     0.444646614131
5
Properties=species:S:1:pos:R:3:forces:R:3 energy=-1101.593639109608 pbc="F F F"
H     -0.228530400000    -0.414367800000    -1.377543100000    -0.460330344594    -0.016197951134     0.298659365662
H     -0.316424500000    -1.683981900000    -0.140230800000    -0.160128316920     0.159099875578     0.078058697843
H      0.313304300000    -0.066534900000     0.248885000000    -0.255516251373     0.059392487490     0.270788605298
H     -1.478229900000    -0.299957600000    -0.034611600000     0.279581778771     0.031830259529    -0.107472120219
C     -0.459283900000    -0.606119400000    -0.310529400000     0.596033179646    -0.234433203866    -0.540497347188
5
Properties=species:S:1:pos:R:3:forces:R:3 energy=-1101.571972587714 pbc="F F F"
H     -0.239071800000    -0.407711600000    -1.390151900000    -0.439607251557    -0.156683038425     0.699751488967
H     -0.318710800000    -1.675857700000    -0.140090100000    -0.121561766602    -0.124544246493     0.057901247544
H      0.330415000000    -0.081591300000     0.236053300000    -0.317428420150     0.244049130411     0.405103044539
H     -1.486928500000    -0.315950500000    -0.062568700000     0.246106013095     0.187176324209     0.134057328905
C     -0.459295800000    -0.605280300000    -0.306385700000     0.632337159012    -0.149998169703    -1.296710265821
5
Properties=species:S:1:pos:R:3:forces:R:3 energy=-1101.548104392577 pbc="F F F"
H     -0.255645500000    -0.403169100000    -1.393347700000    -0.312954700313    -0.228313977882     0.771485272558
H     -0.322693300000    -1.669426200000    -0.139137600000    -0.077955853709    -0.363708280531     0.038052329647
H      0.343082500000    -0.093295600000     0.228815100000    -0.377386550377     0.374249804285     0.472723062763
H     -1.492231000000    -0.329349000000    -0.088661900000     0.169949931734     0.319639569034     0.364376767403
C     -0.458570900000    -0.604621100000    -0.303727100000     0.597935796128    -0.101918536973    -1.646431744103
5
Properties=species:S:1:pos:R:3:forces:R:3 energy=-1101.536640507758 pbc="F F F"
H     -0.276505700000    -0.401731200000    -1.386136700000    -0.104078263791    -0.220137869214     0.503062082346
H     -0.327781200000    -1.667887000000    -0.137660500000    -0.045714217643    -0.433333759371     0.011467120961
H      0.350456200000    -0.099853800000     0.228103300000    -0.446343542345     0.425826137576     0.462747181747
H     -1.495138900000    -0.338330000000    -0.109697200000     0.105929458206     0.402069142580     0.556078233516
C     -0.457149700000    -0.604093800000    -0.302959500000     0.489898033171    -0.174320807437    -1.533354618571
5
Properties=species:S:1:pos:R:3:forces:R:3 energy=-1101.535322932447 pbc="F F F"
H     -0.298777200000    -0.403288600000    -1.372202500000     0.143261878914    -0.138068250138    -0.035944024896
H     -0.333528500000    -1.672168300000    -0.136032700000    -0.029516266510    -0.295831151972    -0.023037086057
H      0.351584400000    -0.100538800000     0.233789200000    -0.509901217269     0.400115104031     0.381654581946
H     -1.496501500000    -0.341756000000    -0.123016600000     0.093691006239     0.419604067458     0.685970374987
C     -0.455160300000    -0.603785600000    -0.303954400000     0.302310332425    -0.385356970776    -1.008541001846
5
Properties=species:S:1:pos:R:3:forces:R:3 energy=-1101.535932739608 pbc="F F F"
H     -0.319071100000    -0.406734600000    -1.358853600000     0.365662319080    -0.018151989683    -0.636708034714
H     -0.339697000000    -1.680442800000    -0.134726000000    -0.019951762031    -0.031778837462    -0.055792942793
H      0.345616300000    -0.095686400000     0.244760700000    -0.535200874278     0.317839796686     0.249962668127
H     -1.496483000000    -0.339380900000    -0.126824600000     0.139353801815     0.373015674674     0.734101429784
C     -0.452821800000    -0.603935300000    -0.306115900000     0.049879405078    -0.640770378014    -0.291614542470
5
Properties=species:S:1:pos:R:3:forces:R:3 energy=-1101.544224593157 pbc="F F F"
H     -0.334348900000    -0.410465900000    -1.354089400000     0.499359693516     0.075590438623    -0.955370584474
H     -0.346137300000    -1.689175200000    -0.134179600000    -0.004062343300     0.222657550502    -0.071013874652
H      0.332236700000    -0.086413900000     0.259209200000    -0.489126702165     0.208002261381     0.097856193673
H     -1.494477900000    -0.331840900000    -0.120462100000     0.214687130103     0.276290766477     0.687821569402
C     -0.450426400000    -0.604827400000    -0.308638700000    -0.221012044355    -0.782592439050     0.240809540185
5
Properties=species:S:1:pos:R:3:forces:R:3 energy=-1101.569054438677 pbc="F F F"
H     -0.342770900000    -0.413227800000    -1.362077500000     0.516997462528     0.094976557916    -0.753744659412
H     -0.352617100000    -1.694932100000    -0.134594000000     0.025659611478     0.357331944212    -0.057695559276
H      0.312108400000    -0.074228800000     0.275039200000    -0.355583593931     0.096159265459    -0.044582932167
H     -1.489487400000    -0.320465600000    -0.104575200000     0.272279845244     0.150358124173     0.549136254459
C     -0.448287800000    -0.606617300000    -0.310925700000    -0.459610435655    -0.698877313827     0.306886896396
5
Properties=species:S:1:pos:R:3:forces:R:3 energy=-1101.595426897670 pbc="F F F"
H     -0.344062800000    -0.414731600000    -1.380149100000     0.441149913569     0.054250280780    -0.156220239821
H     -0.358722500000    -1.695881600000    -0.135782100000     0.068237083029     0.324833197811    -0.014449600852
H      0.287092300000    -0.060683200000     0.290279300000    -0.144598852658    -0.003805232965    -0.157660057699
H     -1.480756500000    -0.306991200000    -0.081081400000     0.268063235743     0.017432080744     0.339025688328
C     -0.446683400000    -0.609207200000    -0.312890300000    -0.632902801750    -0.392710326370    -0.010952900290
5
Properties=species:S:1:pos:R:3:forces:R:3 energy=-1101.600090929235 pbc="F F F"
H     -0.339234500000    -0.415483300000    -1.400365200000     0.315371537466     0.005759271514     0.484293027858
H     -0.363865500000    -1.692457300000    -0.137147300000     0.116830936430     0.144598852658     0.050290781614
H      0.260101600000    -0.047174200000     0.303350900000     0.109477580836    -0.089680085006    -0.236695774817
H     -1.468371700000    -0.293258500000    -0.052880700000     0.179257325877    -0.103461198986     0.093279629702
C     -0.445815100000    -0.612246200000    -0.314873400000    -0.721348757145     0.042577471551    -0.391476196760
5
Properties=species:S:1:pos:R:3:forces:R:3 energy=-1101.581543376407 pbc="F F F"
H     -0.330002000000    -0.416117700000    -1.414086200000     0.177971774200    -0.012032763699     0.886002215969
H     -0.367376900000    -1.687083700000    -0.137803200000     0.161259602396    -0.098884635015     0.119196351516
H      0.234641000000    -0.034910600000     0.313140400000     0.360982910975    -0.166401809105    -0.287037978499
H     -1.453563100000    -0.280944000000    -0.023368700000     0.016866438006    -0.198334912768    -0.148609773891
C     -0.445786200000    -0.615235400000    -0.317296300000    -0.717234991778     0.475551276453    -0.569705081295
5
Properties=species:S:1:pos:R:3:forces:R:3 energy=-1101.557505654334 pbc="F F F"
H     -0.318257100000    -0.416869900000    -1.415822500000     0.057181338605     0.013986802249     0.926677071038
H     -0.368648500000    -1.683019300000    -0.136813700000     0.189953115832    -0.277987694691     0.167738782849
H      0.214179800000    -0.024970500000     0.318934700000     0.565385627660    -0.237364261690    -0.315525803667
H     -1.438557700000    -0.271370000000     0.004104700000    -0.178948793475    -0.260966990484    -0.355069373260
C     -0.446593000000    -0.617679600000    -0.320357500000    -0.633674132756     0.762280722549    -0.423872099027
5
Properties=species:S:1:pos:R:3:forces:R:3 energy=-1101.542021831459 pbc="F F F"
H     -0.305667000000    -0.417377500000    -1.405021500000    -0.025351079076     0.081709664607     0.591765148077
H     -0.367289100000    -1.682645700000    -0.133527000000     0.193964037065    -0.287809309505     0.171955392351
H      0.201542600000    -0.018344300000     0.320332900000     0.689775607952    -0.299636384936    -0.323959022670
H     -1.426033400000    -0.265413100000     0.026667900000    -0.353372445046    -0.290997477665    -0.508564243525
C     -0.448140600000    -0.619252300000    -0.323883000000    -0.505170387097     0.796527819232     0.068442771297
5
Properties=species:S:1:pos:R:3:forces:R:3 energy=-1101.533976513067 pbc="F F F"
H     -0.293373900000    -0.416711800000    -1.386270900000    -0.059135377154     0.173138099894    -0.025865299747
H     -0.363245700000    -1.686094600000    -0.127896400000     0.170566996539    -0.123515805151     0.121716032803
H      0.198451800000    -0.015892500000     0.317221800000     0.716669349040    -0.343036609561    -0.308738090811
H     -1.418376600000    -0.263496800000     0.042178700000    -0.458890526715    -0.291100321799    -0.602358093898
C     -0.450281900000    -0.619912800000    -0.327302400000    -0.369210441710     0.584514636617     0.814988341317
5
Properties=species:S:1:pos:R:3:forces:R:3 energy=-1101.530175626667 pbc="F F F"
H     -0.281874300000    -0.413648000000    -1.367915000000    -0.064740382467     0.240758118118    -0.663087555132
H     -0.356839800000    -1.691185200000    -0.120610000000     0.125007045097     0.114825475813     0.029362000309
H      0.205282200000    -0.018208000000     0.309819200000     0.644986987516    -0.354966529126    -0.265903508925
H     -1.417039000000    -0.265625500000     0.049324700000    -0.473391549635    -0.264258002778    -0.635011106500
C     -0.452857500000    -0.619896800000    -0.329765100000    -0.231964944645     0.263383827637     1.534485904047
5
Properties=species:S:1:pos:R:3:forces:R:3 energy=-1101.540945349028 pbc="F F F"
H     -0.271314100000    -0.407320200000    -1.358418900000    -0.098164726076     0.217001123122    -0.942412223567
H     -0.348698300000    -1.694734900000    -0.112929000000     0.067054375486     0.296911015380    -0.077390210971
H      0.221046800000    -0.025446000000     0.298725100000     0.488766747695    -0.325295996414    -0.195815231481
H     -1.422230700000    -0.271426200000     0.047649900000    -0.402531941184    -0.213041623956    -0.605906216527
C     -0.455702100000    -0.619562800000    -0.330466000000    -0.055278722122     0.024374059801     1.821832414949
5
Properties=species:S:1:pos:R:3:forces:R:3 energy=-1101.570022619792 pbc="F F F"
H     -0.262210600000    -0.398099300000    -1.361470900000    -0.198592023103     0.071425251189    -0.683913492303
H     -0.339619800000    -1.694297600000    -0.106315900000     0.007250511460     0.334911922960    -0.170104197935
H      0.243587400000    -0.037187600000     0.284911700000     0.273102598318    -0.250991109469    -0.106083724408
H     -1.432986700000    -0.280187300000     0.037558200000    -0.268988832950    -0.142182015505    -0.518231592138
C     -0.458604900000    -0.619179700000    -0.329087900000     0.187227746276    -0.013266893309     1.478641539187
5
Properties=species:S:1:pos:R:3:forces:R:3 energy=-1101.594879676697 pbc="F F F"
H     -0.255927500000    -0.387958800000    -1.373716900000    -0.331415222398    -0.142490547908    -0.101198628034
H     -0.330432500000    -1.689362500000    -0.102048100000    -0.046434126583     0.210367676467    -0.230422282632
H      0.269920600000    -0.052397000000     0.269622900000     0.030030487181    -0.136782698461    -0.007199089393
H     -1.447469800000    -0.290926200000     0.020266200000    -0.100581563229    -0.059958130228    -0.381551737811
C     -0.461285600000    -0.618794400000    -0.326011800000     0.448297580895     0.128709433927     0.720268893736
5
Properties=species:S:1:pos:R:3:forces:R:3 energy=-1101.595115871528 pbc="F F F"
H     -0.254236800000    -0.379785200000    -1.387434100000    -0.423872099027    -0.333626371283     0.443206796253
H     -0.321884600000    -1.681615500000    -0.100963000000    -0.090811370482    -0.027048007290    -0.253305102488
H      0.296684700000    -0.069489200000     0.254234300000    -0.203939918081     0.005450739112     0.093433895903
H     -1.463354800000    -0.302503100000    -0.002328300000     0.073533555939     0.023654150862    -0.209647767528
C     -0.463445500000    -0.618251800000    -0.322091300000     0.645141253717     0.331363800331    -0.073687822141
5
Properties=species:S:1:pos:R:3:forces:R:3 energy=-1101.576994993233 pbc="F F F"
H     -0.258379300000    -0.376182200000    -1.395263500000    -0.429631370541    -0.439144452953     0.719908939267
H     -0.314601800000    -1.674257800000    -0.103390500000    -0.129737875269    -0.272228423177    -0.247185876504
H      0.320644700000    -0.086491300000     0.240153000000    -0.393584501511     0.159048453511     0.192832751589
H     -1.478241000000    -0.313757300000    -0.027834100000     0.221526265026     0.099964498424    -0.016403639402
C     -0.464857800000    -0.617327400000    -0.318235500000     0.731118949892     0.452308502128    -0.649049330816
5
Properties=species:S:1:pos:R:3:forces:R:3 energy=-1101.559048812036 pbc="F F F"
H     -0.268427100000    -0.378602300000    -1.393408000000    -0.340516928273    -0.436316239263     0.657431127752
H     -0.309138200000    -1.670578300000    -0.109261900000    -0.170464152405    -0.404280291465    -0.225434342125
H      0.339173600000    -0.101277100000     0.228765100000    -0.513912138502     0.303235929633     0.285855270956
H     -1.490090000000    -0.323626200000    -0.053561400000     0.314445940258     0.163933549884     0.184502376721
C     -0.465420700000    -0.615890800000    -0.315111300000     0.710498700989     0.373632739479    -0.901737368499
5
Properties=species:S:1:pos:R:3:forces:R:3 energy=-1101.549161282810 pbc="F F F"
H     -0.283152600000    -0.387011000000    -1.382719500000    -0.173498054363    -0.329512605916     0.276496454746
H     -0.306067500000    -1.672345600000    -0.118280900000    -0.214995662505    -0.356149236669    -0.194066881199
H      0.350595900000    -0.111854500000     0.221358100000    -0.557158096925     0.415593146225     0.360160157902
H     -1.497621500000    -0.331217600000    -0.076716500000     0.334809078826     0.212167448815     0.375689622163
C     -0.465155700000    -0.614038300000    -0.313014600000     0.610637046699     0.058055513745    -0.818176509477
5
Properties=species:S:1:pos:R:3:forces:R:3 energy=-1101.541287396150 pbc="F F F"
H     -0.300260300000    -0.399948300000    -1.368396500000     0.032704434670    -0.150152435904    -0.301590423486
H     -0.305997900000    -1.678924500000    -0.129996200000    -0.251248219804    -0.160334005188    -0.144598852658
H      0.354293900000    -0.116671100000     0.218953000000    -0.533401101930     0.477299626734     0.398161065482
H     -1.500544800000    -0.335859300000    -0.094647100000     0.286832290231     0.241683715325     0.534995186009
C     -0.464176900000    -0.612132800000    -0.311855300000     0.465009752699    -0.408291212698    -0.486812709146
5
Properties=species:S:1:pos:R:3:forces:R:3 energy=-1101.534308219863 pbc="F F F"
H     -0.316935400000    -0.414975200000    -1.358219200000     0.216692590719     0.039800679928    -0.807686407790
H     -0.309415400000    -1.687700200000    -0.143701300000    -0.260349925679     0.077698743374    -0.065460291406
H      0.350574500000    -0.114877800000     0.222060900000    -0.464289843760     0.475654120587     0.382528757086
H     -1.499500200000    -0.337142800000    -0.105152100000     0.197563581762     0.248574272315     0.637067989184
C     -0.462652200000    -0.610704200000    -0.311267200000     0.310126486623    -0.841522127936    -0.146398625007
5
Properties=species:S:1:pos:R:3:forces:R:3 energy=-1101.541056099369 pbc="F F F"
H     -0.330670800000    -0.429510000000    -1.358880300000     0.321130808980     0.175554937047    -0.917883897565
H     -0.316430800000    -1.695467100000    -0.158285300000    -0.228468244083     0.249654135724     0.045354263174
H      0.340378400000    -0.106502900000     0.230454200000    -0.372090077467     0.405360154874     0.304778591645
H     -1.495688700000    -0.334977300000    -0.106827900000     0.108294873293     0.228159711680     0.659950809039
C     -0.460760800000    -0.610243800000    -0.310880300000     0.171955392351    -1.059448848265    -0.093125363501
5
Properties=species:S:1:pos:R:3:forces:R:3 energy=-1101.563968086401 pbc="F F F"
H     -0.340018400000    -0.441672600000    -1.371804900000     0.333626371283     0.239421144373    -0.537566289364
H     -0.326596700000    -1.699891000000    -0.172211000000    -0.154986110211     0.291717386604     0.175452092913
H      0.324967900000    -0.092518100000     0.243059800000    -0.275365169270     0.272742643848     0.173549476430
H     -1.490317500000    -0.329653000000    -0.099367000000     0.055535832458     0.176943332858     0.592793589419
C     -0.458666600000    -0.611000000000    -0.310640000000     0.040931965404    -0.980927351818    -0.404434557667
5
Properties=species:S:1:pos:R:3:forces:R:3 energy=-1101.583131432895 pbc="F F F"
H     -0.344764200000    -0.450531300000    -1.391964800000     0.285341050285     0.260915568417     0.091736967689
H     -0.338897600000    -1.700391400000    -0.183681200000    -0.051473489158     0.196586562487     0.304007260639
H      0.305704500000    -0.074769100000     0.258056300000    -0.174577917772     0.092096922159     0.007918998332
H     -1.484110400000    -0.321885800000    -0.083702200000     0.051524911225     0.096313531660     0.442281199045
C     -0.456526400000    -0.612884600000    -0.310888300000    -0.111020242848    -0.646015428858    -0.845995847773
5
Properties=species:S:1:pos:R:3:forces:R:3 energy=-1101.583557291086 pbc="F F F"
H     -0.345540000000    -0.455748200000    -1.410944100000     0.213864377029     0.270891449433     0.639381982203
H     -0.351908000000    -1.698244200000    -0.190921100000     0.062066434978     0.012906938840     0.409216809906
H      0.284010700000    -0.055752400000     0.273161400000    -0.061397948106    -0.106906477481    -0.159254141779
H     -1.477147100000    -0.312792400000    -0.061912600000     0.076618879965    -0.003753810898     0.232993385987
C     -0.454519700000    -0.615515400000    -0.312114600000    -0.291357432135    -0.173498054363    -1.122595146652
5
Properties=species:S:1:pos:R:3:forces:R:3 energy=-1101.571991091457 pbc="F F F"
H     -0.343318900000    -0.457171300000    -1.421304100000     0.143724677518     0.280661642180     0.904308471853
H     -0.364062700000    -1.695907400000    -0.192480100000     0.164087816086    -0.162802264408     0.471334666951
H      0.261484500000    -0.038208600000     0.286078300000     0.076156081361    -0.285443894419    -0.291100321799
H     -1.469122900000    -0.303751900000    -0.036888600000     0.092045500092    -0.105055283066     0.000462798604
C     -0.452856100000    -0.618352800000    -0.314630100000    -0.476322607459     0.272228423177    -1.085468414213
5
Properties=species:S:1:pos:R:3:forces:R:3 energy=-1101.562728879882 pbc="F F F"
H     -0.339066700000    -0.454663000000    -1.419412600000     0.089577240872     0.291665964537     0.816376737128
H     -0.373950700000    -1.695715700000    -0.187507200000     0.239266878172    -0.225228653856     0.473494393769
H      0.240056900000    -0.024594800000     0.294994400000     0.240963806386    -0.406799972753    -0.358257541419
H     -1.459861500000    -0.296159100000    -0.011840600000     0.063557674924    -0.186662103538    -0.217258233457
C     -0.451750000000    -0.620889000000    -0.318389600000    -0.633468444488     0.526870499409    -0.714458200155
5
Properties=species:S:1:pos:R:3:forces:R:3 energy=-1101.558998198858 pbc="F F F"
H     -0.333530500000    -0.448069000000    -1.406484000000     0.060575195033     0.303544462035     0.392196105699
H     -0.380527000000    -1.698486800000    -0.175989300000     0.281741505589    -0.127732414653     0.402480519117
H      0.222020800000    -0.016586300000     0.298984500000     0.419141268855    -0.449840242908    -0.347818861800
H     -1.449776900000    -0.291136400000     0.010218600000    -0.022214332983    -0.230782237102    -0.389059359607
C     -0.451384000000    -0.622833200000    -0.322961300000    -0.739397902694     0.504656166426    -0.058004091678
5
Properties=species:S:1:pos:R:3:forces:R:3 energy=-1101.552277258624 pbc="F F F"
H     -0.327116200000    -0.437232600000    -1.388306500000     0.055844364860     0.306629786061    -0.232530587383
H     -0.383193300000    -1.702917500000    -0.158919400000     0.294699866496     0.078110119910     0.259784282941
H      0.209834000000    -0.014788200000     0.298183000000     0.578858209238    -0.416570165500    -0.270171540493
H     -1.440056300000    -0.289291100000     0.026906600000    -0.153443448198    -0.228673932351    -0.494063220605
C     -0.451881000000    -0.624206100000    -0.327586900000    -0.776164680664     0.260247081545     0.736723955205
5
Properties=species:S:1:pos:R:3:forces:R:3 energy=-1101.543186478781 pbc="F F F"
H     -0.319916800000    -0.422151600000    -1.373270200000     0.052193398097     0.265543554455    -0.754156035949
H     -0.381761600000    -1.706263900000    -0.138270300000     0.283027057266     0.276702143014     0.067362907889
H      0.205681900000    -0.018763200000     0.293638500000     0.676662980844    -0.331775176868    -0.158379966639
H     -1.432499700000    -0.290597100000     0.036761600000    -0.297065281582    -0.182754026440    -0.525019304994
C     -0.453281300000    -0.625277400000    -0.331361300000    -0.714972420826    -0.027870760363     1.370089555559
5
Properties=species:S:1:pos:R:3:forces:R:3 energy=-1101.546870628335 pbc="F F F"
H     -0.312031200000    -0.403465900000    -1.368272000000     0.010798634089     0.127783836720    -0.840133732124
H     -0.376388400000    -1.705870800000    -0.116691300000     0.251453908072     0.360931488908    -0.136011367454
H      0.210880900000    -0.027368500000     0.286861300000     0.668126917707    -0.232839119786    -0.058981110953
H     -1.429064700000    -0.294428600000     0.039341200000    -0.406491440350    -0.107626386420    -0.490155143506
C     -0.455509700000    -0.626364500000    -0.333572500000    -0.523939441585    -0.148404085623     1.525127087837
5
Properties=species:S:1:pos:R:3:forces:R:3 energy=-1101.564815448962 pbc="F F F"
H     -0.304055900000    -0.383116500000    -1.374462700000    -0.080732645332    -0.114156988941    -0.447423405754
H     -0.367514000000    -1.700616000000    -0.096981400000     0.202705788471     0.281432973186    -0.310743551428
H      0.225281900000    -0.039254300000     0.279198800000     0.528001784885    -0.149895325569    -0.009513082412
H     -1.431224600000    -0.299760600000     0.035107900000    -0.431945363560    -0.027202273491    -0.411325114657
C     -0.458342800000    -0.627598300000    -0.334040400000    -0.217978142397     0.009461660345     1.178799465982
5
Properties=species:S:1:pos:R:3:forces:R:3 energy=-1101.576710362135 pbc="F F F"
H     -0.297227800000    -0.364404500000    -1.386702400000    -0.186302149069    -0.388647983070     0.132360400691
H     -0.355817000000    -1.691585700000    -0.081558400000     0.139868022486     0.061860746710    -0.431379720822
H      0.246938500000    -0.053265200000     0.271338200000     0.270942871500    -0.088188845060    -0.014243912584
H     -1.439298100000    -0.305496600000     0.025135500000    -0.342368122688     0.033732876011    -0.313571765118
C     -0.461429300000    -0.628799600000    -0.333141600000     0.117910799838     0.380883250939     0.626526465430
5
Properties=species:S:1:pos:R:3:forces:R:3 energy=-1101.571769862888 pbc="F F F"
H     -0.292967100000    -0.351062400000    -1.397258300000    -0.257418867855    -0.601278230489     0.574384489401
H     -0.342176200000    -1.681748700000    -0.072110900000     0.063351986655    -0.207076664173    -0.494937395746
H      0.272321300000    -0.068513000000     0.263252200000    -0.042988848088    -0.028539247235    -0.041086231605
H     -1.452044300000    -0.310799200000     0.010780100000    -0.149638215233     0.061397948106    -0.208979280656
C     -0.464383800000    -0.629550700000    -0.331495700000     0.386488256252     0.775290505523     0.170618418606
5
Properties=species:S:1:pos:R:3:forces:R:3 energy=-1101.560717142113 pbc="F F F"
H     -0.292238800000    -0.345997700000    -1.400129400000    -0.267086216468    -0.692243867172     0.712092785069
H     -0.327668300000    -1.674721800000    -0.069546500000    -0.030339019583    -0.399755149561    -0.516586085991
H      0.297132900000    -0.084134800000     0.254617800000    -0.330695313459     0.051730599493    -0.046022750046
H     -1.466833100000    -0.315276400000    -0.006492300000     0.087366091987     0.059752441959    -0.095902155124
C     -0.466895200000    -0.629408700000    -0.329626100000     0.540548769255     0.980361709080    -0.053427527707
5
Properties=species:S:1:pos:R:3:forces:R:3 energy=-1101.556842240743 pbc="F F F"
H     -0.295173900000    -0.350463700000    -1.393424800000    -0.210933319205    -0.643547169637     0.510929658611
H     -0.313607700000    -1.673089500000    -0.074186100000    -0.143004768579    -0.421455261874    -0.511238191014
H      0.317426800000    -0.098996500000     0.245397600000    -0.522036825103     0.161516712731    -0.001336973744
H     -1.480440600000    -0.318931700000    -0.025090800000     0.288272108109     0.045405685241     0.031316038858
C     -0.468781300000    -0.628146200000    -0.327794900000     0.587754226844     0.857925767338    -0.029721954778
5
Properties=species:S:1:pos:R:3:forces:R:3 energy=-1101.558801732651 pbc="F F F"
H     -0.301001300000    -0.363797400000    -1.379897900000    -0.102175647309    -0.471848887622     0.028230714833
H     -0.301560900000    -1.677154900000    -0.085949500000    -0.264463691046    -0.271097137701    -0.474368568910
H      0.330565900000    -0.111572700000     0.236219500000    -0.580709403653     0.291203165933     0.094410915178
H     -1.490130200000    -0.321944900000    -0.043237900000     0.387928074131     0.036303979366     0.169384288996
C     -0.469983600000    -0.625906500000    -0.325980000000     0.559214979609     0.415387457957     0.182342649903
5
Properties=species:S:1:pos:R:3:forces:R:3 energy=-1101.557094218178 pbc="F F F"
H     -0.308236800000    -0.383660300000    -1.366096800000     0.024785436338    -0.233559028725    -0.551193137143
H     -0.293197800000    -1.684918800000    -0.104296200000    -0.368747643106    -0.037229576574    -0.385768347313
H      0.335723800000    -0.120073300000     0.228395700000    -0.510415437940     0.417804295110     0.217155389323
H     -1.494538800000    -0.324431200000    -0.059017600000     0.359543093097     0.042988848088     0.303235929633
C     -0.470531800000    -0.623194400000    -0.323947700000     0.494577441276    -0.189901693765     0.416570165500
5
Properties=species:S:1:pos:R:3:forces:R:3 energy=-1101.554377433397 pbc="F F F"
H     -0.315167600000    -0.406813400000    -1.359755100000     0.115802495088    -0.010541523754    -0.908833613757
H     -0.289943900000    -1.693241300000    -0.127967300000    -0.426340358247     0.166504653239    -0.231193613639
H      0.333834000000    -0.122763900000     0.223597400000    -0.355017951193     0.508307133189     0.325604528817
H     -1.494040500000    -0.326298100000    -0.070583400000     0.223017504971     0.064329005930     0.409268231973
C     -0.470497100000    -0.620699000000    -0.321449700000     0.442384043179    -0.728342158270     0.405514421076
5
Properties=species:S:1:pos:R:3:forces:R:3 energy=-1101.561488040679 pbc="F F F"
H     -0.320566500000    -0.430194200000    -1.365569800000     0.132103290355     0.147067111879    -0.791694144925
H     -0.292584900000    -1.699363100000    -0.154811300000    -0.418884158519     0.260298503612    -0.020568826836
H      0.326986200000    -0.118424500000     0.223284400000    -0.187844811082     0.522756734042     0.370238883051
H     -1.490471900000    -0.327261000000    -0.076478700000     0.042011828813     0.087983156792     0.463004292083
C     -0.469937400000    -0.619035300000    -0.318517100000     0.433642291774    -1.018773993197    -0.021802956446
5
Properties=species:S:1:pos:R:3:forces:R:3 energy=-1101.572962810052 pbc="F F F"
H     -0.324189800000    -0.451572800000    -1.381989600000     0.086183384444     0.255979049976    -0.271457092171
H     -0.301013900000    -1.701999100000    -0.181912900000    -0.344682115707     0.218749473403     0.216332636250
H      0.317424500000    -0.106885300000     0.228046200000    -0.085463475504     0.430916922218     0.318096907022
H     -1.486264800000    -0.327011600000    -0.075972100000    -0.096210687526     0.094668025514     0.446754918882
C     -0.468866200000    -0.618539400000    -0.315636400000     0.440172894295    -1.000416315245    -0.709778792050
5
Properties=species:S:1:pos:R:3:forces:R:3 energy=-1101.573009885750 pbc="F F F"
H     -0.326625900000    -0.469379600000    -1.402116500000     0.022882819855     0.351932627167     0.334654812625
H     -0.314210600000    -1.701700700000    -0.205999400000    -0.219520804409     0.068288505096     0.441201335636
H      0.306558400000    -0.089441300000     0.237148100000    -0.071476673256     0.228982464754     0.169230022795
H     -1.483274700000    -0.325474400000    -0.069294900000    -0.124492824426     0.069368368505     0.357949009017
C     -0.467282600000    -0.619194000000    -0.313580500000     0.392350371900    -0.718726231724    -1.303138024207
5
Properties=species:S:1:pos:R:3:forces:R:3 energy=-1101.559859983453 pbc="F F F"
H     -0.328719100000    -0.482263500000    -1.417786200000    -0.022317177117     0.442126932844     0.751584932594
H     -0.330454400000    -1.700489300000    -0.223961500000    -0.071168140853    -0.117293735033     0.619944440843
H      0.294631300000    -0.068868100000     0.248562200000    -0.107986340890    -0.038309439982    -0.027870760363
H     -1.481894100000    -0.323003100000    -0.057669700000    -0.040212056465     0.012906938840     0.213812954962
C     -0.465247900000    -0.620680300000    -0.313023300000     0.241375182923    -0.299636384936    -1.557625834238
5
Properties=species:S:1:pos:R:3:forces:R:3 energy=-1101.547191450576 pbc="F F F"
H     -0.331086600000    -0.488978800000    -1.423297200000    -0.035172693890     0.512780853026     0.856280261191
H     -0.347703300000    -1.700840800000    -0.233325300000     0.070396809847    -0.235204534872     0.727365138995
H      0.281216700000    -0.048821300000     0.259611400000    -0.124904200963    -0.296859593313    -0.203682807745
H     -1.481018400000    -0.320365300000    -0.043077900000     0.093639584172    -0.055535832458     0.045714217643
C     -0.462938800000    -0.622523400000    -0.314260100000    -0.004319453636     0.074561997281    -1.425985342486
5
Properties=species:S:1:pos:R:3:forces:R:3 energy=-1101.546895390696 pbc="F F F"
H     -0.333906700000    -0.488552600000    -1.417204200000    -0.013935380182     0.549907585466     0.628429081913
H     -0.363997500000    -1.704310000000    -0.232605500000     0.185890772532    -0.205174047691     0.746288459684
H      0.266139900000    -0.032837800000     0.267902000000    -0.068905569901    -0.475602698520    -0.300150605607
H     -1.478873300000    -0.318487700000    -0.027832100000     0.192472797120    -0.109323314634    -0.110865976647
C     -0.460639300000    -0.624299700000    -0.317141900000    -0.295882574039     0.239832520910    -0.964060913812
5
Properties=species:S:1:pos:R:3:forces:R:3 energy=-1101.556095560310 pbc="F F F"
H     -0.336889600000    -0.480472800000    -1.402635200000     0.034401362884     0.545999508367     0.126446862975
H     -0.377723900000    -1.710475200000    -0.221550000000     0.270891449433    -0.026533786619     0.665915768822
H      0.250200900000    -0.023371700000     0.272115000000     0.074202042812    -0.532526926789    -0.289711925988
H     -1.474145300000    -0.318099100000    -0.014090900000     0.196380874219    -0.127578148451    -0.226668471735
C     -0.458686700000    -0.625820400000    -0.321135200000    -0.576132839682     0.140279399023    -0.276290766477
5
Properties=species:S:1:pos:R:3:forces:R:3 energy=-1101.563075552940 pbc="F F F"
H     -0.339381700000    -0.464804300000    -1.386402400000     0.089782929140     0.491286428982    -0.459610435655
H     -0.387688300000    -1.716937900000    -0.201281400000     0.328689852842     0.214430019767     0.489743766970
H      0.235374700000    -0.021217400000     0.272386300000     0.279067558100    -0.465523973370    -0.181262786494
H     -1.466796500000    -0.319445400000    -0.003456400000     0.090502838079    -0.102021381108    -0.284518297212
C     -0.457405100000    -0.627194000000    -0.325450300000    -0.788403132631    -0.138531048742     0.435390642055
5
Properties=species:S:1:pos:R:3:forces:R:3 energy=-1101.566753715989 pbc="F F F"
H     -0.340645400000    -0.442343300000    -1.376325600000     0.120327636992     0.360160157902    -0.806966498851
H     -0.393078600000    -1.720467300000    -0.174236500000     0.361240021311     0.396926935871     0.243946286277
H      0.224459300000    -0.025483000000     0.270179700000     0.484807248529    -0.314600206460    -0.022368599184
H     -1.458273200000    -0.322175500000     0.003263700000    -0.093999538641    -0.038463706184    -0.282615680729
C     -0.457038200000    -0.628729400000    -0.329281000000    -0.872683900593    -0.404280291465     0.867747382152
5
Properties=species:S:1:pos:R:3:forces:R:3 energy=-1101.574276575769 pbc="F F F"
H     -0.340280800000    -0.414962400000    -1.376978100000     0.103615465187     0.125161311298    -0.680211103473
H     -0.393439900000    -1.718616800000    -0.143802400000     0.367359247294     0.428242974730    -0.025608189411
H      0.220235600000    -0.034140700000     0.267627800000     0.606574703399    -0.151900786185     0.108911938098
H     -1.451077800000    -0.325423500000     0.006077600000    -0.287192244700     0.042783159819    -0.236952885153
C     -0.457681100000    -0.630717700000    -0.332138400000    -0.790254327047    -0.443926705192     0.833808817872
5
Properties=species:S:1:pos:R:3:forces:R:3 energy=-1101.580164847591 pbc="F F F"
H     -0.338509100000    -0.385930600000    -1.386714100000     0.050753580218    -0.192215686784    -0.182394071970
H     -0.388689000000    -1.710978900000    -0.113696700000     0.345144914311     0.281175862851    -0.270274384628
H      0.224321200000    -0.044994800000     0.266481400000     0.571659119845    -0.046074172113     0.140227976956
H     -1.447809800000    -0.328086300000     0.005588900000    -0.399549461293     0.111585885586    -0.177354709395
C     -0.459239600000    -0.633195300000    -0.334046100000    -0.568059575149    -0.154626155741     0.489692344903
5
Properties=species:S:1:pos:R:3:forces:R:3 energy=-1101.572327696302 pbc="F F F"
H     -0.336027900000    -0.359589700000    -1.398959800000    -0.004010921233    -0.508101444921     0.359851625499
H     -0.379137100000    -1.699556100000    -0.087307300000     0.294391334093     0.005502161179    -0.457245020569
H      0.236214700000    -0.056586700000     0.267161400000     0.370393149253    -0.016352217335     0.057284182739
H     -1.449964700000    -0.329235900000     0.002599300000    -0.366279383885     0.138788159077    -0.130869160745
C     -0.461461300000    -0.635830200000    -0.335374400000    -0.294442756160     0.379803387530     0.170926951009
5
Properties=species:S:1:pos:R:3:forces:R:3 energy=-1101.553330067149 pbc="F F F"
H     -0.333573500000    -0.340258900000    -1.406429900000    -0.033989986347    -0.734821338723     0.683245005431
H     -0.365495500000    -1.688070500000    -0.067247000000     0.214892818371    -0.281381551119    -0.581120780190
H      0.253181700000    -0.068452000000     0.268574800000     0.072710802866    -0.023962683264    -0.083766547290
H     -1.457081600000    -0.328503600000    -0.002245600000    -0.192472797120     0.113797034471    -0.102895556248
C     -0.464033600000    -0.638017200000    -0.336478100000    -0.060935149502     0.926008584165     0.084332190028
5
Properties=species:S:1:pos:R:3:forces:R:3 energy=-1101.538648163820 pbc="F F F"
H     -0.331553600000    -0.331052300000    -1.404716100000    -0.028436403101    -0.819822015624     0.679028395930
H     -0.348880600000    -1.680378700000    -0.055271000000     0.104592484462    -0.444903724467    -0.658459569094
H      0.271180000000    -0.080630700000     0.268843800000    -0.214995662505    -0.013986802249    -0.201574502995
H     -1.466819400000    -0.326223000000    -0.008536200000     0.044788620436     0.050239359547    -0.078830028850
C     -0.466685300000    -0.639139400000    -0.337456800000     0.094359493111     1.228164650389     0.259681438807
5
Properties=species:S:1:pos:R:3:forces:R:3 energy=-1101.538349382801 pbc="F F F"
H     -0.329891500000    -0.333144400000    -1.393878800000     0.011672809230    -0.749219517508     0.345659134982
H     -0.330837000000    -1.678685800000    -0.052479500000    -0.035635492494    -0.414256172481    -0.702631124724
H      0.286282700000    -0.092944900000     0.266385400000    -0.405411576941     0.046331282449    -0.238649813367
H     -1.475976200000    -0.323250200000    -0.015913700000     0.243792020076    -0.023037086057    -0.040366322666
C     -0.469232400000    -0.638855900000    -0.338110400000     0.185633662197     1.139975805329     0.635885281641
5
Properties=species:S:1:pos:R:3:forces:R:3 energy=-1101.546969949893 pbc="F F F"
H     -0.328039700000    -0.345579200000    -1.378474800000     0.073482133872    -0.551964468149    -0.216384058317
H     -0.313312300000    -1.682610000000    -0.059476500000    -0.192061420583    -0.228005445479    -0.701037040645
H      0.295875200000    -0.104549600000     0.260700300000    -0.453696897939     0.158534232840    -0.177354709395
H     -1.481854300000    -0.320577200000    -0.023830200000     0.328021365970    -0.077390210971     0.019848917897
C     -0.471564300000    -0.637266800000    -0.338009300000     0.244151974546     0.698620203491     1.075029734594
5
Properties=species:S:1:pos:R:3:forces:R:3 energy=-1101.556200324147 pbc="F F F"
H     -0.325172300000    -0.365688500000    -1.366080500000     0.123104428615    -0.307658227402    -0.754310302150
H     -0.298463900000    -1.689676300000    -0.076202600000    -0.336660273241     0.002931057824    -0.623852517942
H      0.299283000000    -0.113896500000     0.252624400000    -0.359594515164     0.302413176559    -0.035789758695
H     -1.483307600000    -0.318946300000    -0.031451700000     0.268783144682    -0.096467797862     0.094359493111
C     -0.473609100000    -0.634871500000    -0.336662300000     0.304161526840     0.098627524680     1.319593085676
5
Properties=species:S:1:pos:R:3:forces:R:3 energy=-1101.569080017380 pbc="F F F"
H     -0.320652700000    -0.390163000000    -1.363818400000     0.112254372459    -0.108140607091    -0.929916661264
H     -0.288279000000    -1.696777400000    -0.101556400000    -0.437910323343     0.171389749613    -0.453954008275
H      0.297769000000    -0.119016400000     0.244084800000    -0.169898509667     0.438373121946     0.138016828071
H     -1.481135500000    -0.318624800000    -0.037755400000     0.091788389757    -0.080424112930     0.165270523629
C     -0.475292100000    -0.632351900000    -0.333811600000     0.403560382526    -0.421146729471     1.080686161974
5
Properties=species:S:1:pos:R:3:forces:R:3 energy=-1101.585821278404 pbc="F F F"
H     -0.314659000000    -0.416234900000    -1.373974900000     0.020157450299     0.024168371533    -0.604312132447
H     -0.284149600000    -1.701620100000    -0.133174100000    -0.473905770306     0.219983603013    -0.204402716685
H      0.293880900000    -0.118071800000     0.237431700000     0.022934241922     0.509746951068     0.271817046640
H     -1.477723600000    -0.319408800000    -0.041777100000    -0.123361538950    -0.047051191388     0.208156527582
C     -0.476495300000    -0.630304300000    -0.329741900000     0.553507130162    -0.706642045957     0.328741274909
5
Properties=species:S:1:pos:R:3:forces:R:3 energy=-1101.592057311739 pbc="F F F"
H     -0.308435300000    -0.441984900000    -1.392261600000    -0.115956761289     0.140639353492     0.003033901958
H     -0.286572800000    -1.703526300000    -0.167604900000    -0.438733076416     0.146347202940     0.087366091987
H      0.290196700000    -0.110131400000     0.234457800000     0.117088046765     0.460073234259     0.298556521527
H     -1.475952500000    -0.320864700000    -0.042942400000    -0.264772223449    -0.024682592203     0.200854594055
C     -0.477047400000    -0.629061200000    -0.325302000000     0.701859793718    -0.722325776420    -0.589862531595
5
Properties=species:S:1:pos:R:3:forces:R:3 energy=-1101.579226326887 pbc="F F F"
H     -0.303812100000    -0.465731700000    -1.410586400000    -0.234484625933     0.281587239387     0.549084832392
H     -0.295069200000    -1.703476200000    -0.200816200000    -0.344065050902    -0.005862115648     0.375535355962
H      0.287979800000    -0.095909900000     0.235518700000     0.067620018224     0.274131039659     0.203065742940
H     -1.477700500000    -0.322705100000    -0.041362800000    -0.249242759188    -0.034298518749     0.136422743991
C     -0.476783000000    -0.628645700000    -0.321530800000     0.759863885396    -0.515711910850    -1.264211519419
5
Properties=species:S:1:pos:R:3:forces:R:3 energy=-1101.555786711079 pbc="F F F"
H     -0.302404200000    -0.485515200000    -1.421546100000    -0.295316931301     0.438373121946     0.822598807246
H     -0.308344300000    -1.703508600000    -0.228819800000    -0.215252772841    -0.158071434236     0.619481642239
H      0.286599600000    -0.077952300000     0.239340800000    -0.074664841415     0.001336973744     0.037640953110
H     -1.482760300000    -0.325059300000    -0.037918000000    -0.084897832766    -0.071322407054     0.033887142213
C     -0.475639600000    -0.628826900000    -0.319204100000     0.669772423854    -0.210521942668    -1.513814233077
5
Properties=species:S:1:pos:R:3:forces:R:3 energy=-1101.536937111866 pbc="F F F"
H     -0.305049500000    -0.499177100000    -1.421376100000    -0.285649582688     0.580143760915     0.762075034281
H     -0.324627300000    -1.705652300000    -0.248233900000    -0.080115580527    -0.224097368380     0.789534418107
H      0.284185800000    -0.059971900000     0.243706800000    -0.208156527582    -0.268320346078    -0.114774053746
H     -1.488942900000    -0.328412400000    -0.034001000000     0.135137192314    -0.108294873293    -0.070293965713
C     -0.473722400000    -0.629263100000    -0.318619000000     0.438373121946     0.020363138568    -1.366644277064
5
Properties=species:S:1:pos:R:3:forces:R:3 energy=-1101.532066273768 pbc="F F F"
H     -0.311618300000    -0.504765900000    -1.410898500000    -0.210727630937     0.677280045649     0.390756287821
H     -0.342045400000    -1.710774900000    -0.256701400000     0.044171555631    -0.155654597083     0.864919168462
H      0.278963000000    -0.045645300000     0.246560300000    -0.251145375670    -0.450920106316    -0.187741966947
H     -1.493301000000    -0.333247600000    -0.031029100000     0.298145144991    -0.115545384752    -0.140433665224
C     -0.471298200000    -0.629696000000    -0.319612800000     0.119196351516     0.044480088033    -0.927808356514
5
Properties=species:S:1:pos:R:3:forces:R:3 energy=-1101.539161642674 pbc="F F F"
H     -0.321087700000    -0.500948200000    -1.395184500000    -0.093279629702     0.706539201823    -0.176480534255
H     -0.358862700000    -1.717944100000    -0.253183800000     0.153340604064     0.025093968740     0.831494824853
H      0.270369300000    -0.037475300000     0.246911800000    -0.169589977264    -0.499359693516    -0.153083493728
H     -1.493640400000    -0.339646800000    -0.029958300000     0.328946963178    -0.076567457898    -0.154523311607
C     -0.468735600000    -0.630099100000    -0.321683500000    -0.219777914745    -0.156168817754    -0.347870283867
5
Properties=species:S:1:pos:R:3:forces:R:3 energy=-1101.552160793892 pbc="F F F"
H     -0.331861400000    -0.487338000000    -1.381880500000     0.025505345277     0.646992448132    -0.686227485322
H     -0.373549100000    -1.724725900000    -0.238149900000     0.248162895779     0.235975865878     0.688695744543
H      0.259526500000    -0.036137500000     0.245232900000     0.018511944153    -0.411222270523    -0.022265755050
H     -1.489547600000    -0.347066300000    -0.030981500000     0.211756072279     0.006941979057    -0.109169048433
C     -0.466426300000    -0.630698200000    -0.324173200000    -0.504090523688    -0.478996554948     0.128760855995
5
Properties=species:S:1:pos:R:3:forces:R:3 energy=-1101.570308611459 pbc="F F F"
H     -0.342327400000    -0.464796700000    -1.377743800000     0.103821153456     0.476065497124    -0.825735553339
H     -0.384780200000    -1.728283900000    -0.213574600000     0.325501684683     0.378414991719     0.457964929508
H      0.248991700000    -0.040450900000     0.243294300000     0.246517389632    -0.232787697719     0.151695097917
H     -1.482612200000    -0.354358100000    -0.033483500000    -0.008844595540     0.116316715759    -0.021391579910
C     -0.464697900000    -0.631854600000    -0.326548600000    -0.667252742566    -0.738369461352     0.237415683757
5
Properties=species:S:1:pos:R:3:forces:R:3 energy=-1101.589170455796 pbc="F F F"
H     -0.351397800000    -0.435722900000    -1.384604000000     0.133645952368     0.191855732315    -0.494680285410
H     -0.391482700000    -1.726706900000    -0.182639500000     0.377180862109     0.381808848147     0.181622740964
H      0.241834100000    -0.048020900000     0.243427500000     0.409731030577    -0.051627755359     0.280455953911
H     -1.475806600000    -0.360027800000    -0.036275400000    -0.233816139060     0.219726492678     0.074459153147
C     -0.463739900000    -0.633854000000    -0.328684300000    -0.686793128060    -0.741866161914    -0.041960406746
5
Properties=species:S:1:pos:R:3:forces:R:3 energy=-1101.595064714122 pbc="F F F"
H     -0.358623700000    -0.404038700000    -1.398107700000     0.140125132822    -0.156117395687     0.077647321307
H     -0.392942400000    -1.719961600000    -0.149155800000     0.394715786987     0.234124671463    -0.091377013220
H      0.240225300000    -0.056414000000     0.247335900000     0.414153328347     0.046639814851     0.281484395253
H     -1.472141000000    -0.362671500000    -0.038062900000    -0.345350602580     0.279736044972     0.138068250138
C     -0.463579600000    -0.636691900000    -0.330877600000    -0.603746489709    -0.404537401801    -0.406080063814
5
Properties=species:S:1:pos:R:3:forces:R:3 energy=-1101.581894403286 pbc="F F F"
H     -0.363882700000    -0.374512400000    -1.410629200000     0.149226838697    -0.480693483162     0.566979711740
H     -0.388920400000    -1.710048400000    -0.116903900000     0.372552876071    -0.006890556990    -0.324678931609
H      0.244212800000    -0.064280200000     0.255016900000     0.248111473712     0.040006368196     0.140639353492
H     -1.473096500000    -0.361479900000    -0.037983100000    -0.276650720947     0.270274384628     0.146244358805
C     -0.464126800000    -0.639981200000    -0.333524000000    -0.493548999934     0.176840488724    -0.529235914495
5
Properties=species:S:1:pos:R:3:forces:R:3 energy=-1101.558586762701 pbc="F F F"
H     -0.367037800000    -0.351600800000    -1.415543900000     0.170207042069    -0.705510760481     0.775033395188
H     -0.379727000000    -1.700212800000    -0.089137300000     0.310280752824    -0.231964944645    -0.506867315311
H      0.251573700000    -0.071648400000     0.264580800000    -0.003959499166    -0.019488963427    -0.073842088342
H     -1.477754900000    -0.356582700000    -0.035911600000    -0.063814785259     0.193192706059     0.106649367146
C     -0.465257600000    -0.643061800000    -0.336757800000    -0.412559244267     0.763514852159    -0.301024780748
5
Properties=species:S:1:pos:R:3:forces:R:3 energy=-1101.539822607240 pbc="F F F"
H     -0.367797800000    -0.338399300000    -1.410007600000     0.201831613330    -0.785369230673     0.638507807062
H     -0.366233500000    -1.693480800000    -0.068417300000     0.209853455796    -0.336197474638    -0.645038409583
H      0.258917900000    -0.079264200000     0.273140200000    -0.225125809722    -0.058775422684    -0.264258002778
H     -1.483270500000    -0.349026500000    -0.032369100000     0.180491455488     0.076207503428     0.047308301723
C     -0.466877300000    -0.645269100000    -0.340316700000    -0.366947870758     1.103774670097     0.223377459441
5
Properties=species:S:1:pos:R:3:forces:R:3 energy=-1101.532754449720 pbc="F F F"
H     -0.365723000000    -0.336015300000    -1.395901800000     0.239986787111    -0.710601545123     0.185787928398
H     -0.349837300000    -1.691274200000    -0.056685300000     0.078830028850    -0.287243666767    -0.742894603256
H      0.263244500000    -0.087626100000     0.278110800000    -0.332083709270    -0.033270077408    -0.360057313768
H     -1.486359500000    -0.340404100000    -0.028153300000     0.340259817938    -0.041908984679    -0.003548122629
C     -0.468929100000    -0.646215300000    -0.343595700000    -0.327147190830     1.072767163642     0.920455000920
5
Properties=species:S:1:pos:R:3:forces:R:3 energy=-1101.534090256660 pbc="F F F"
H     -0.360293300000    -0.343445600000    -1.379396500000     0.272125579043    -0.520494163090    -0.432459584231
H     -0.332354000000    -1.692975300000    -0.055291200000    -0.066694421016    -0.140690775560    -0.783260925922
H      0.263093100000    -0.096370100000     0.278181700000    -0.292797250013     0.064020473528    -0.334654812625
H     -1.484863900000    -0.332331200000    -0.023958200000     0.346379043921    -0.128709433927    -0.030236175449
C     -0.471362900000    -0.645931100000    -0.345795100000    -0.259115796069     0.725771054915     1.580354387892
5
Properties=species:S:1:pos:R:3:forces:R:3 energy=-1101.542883343940 pbc="F F F"
H     -0.351094100000    -0.358145000000    -1.368777100000     0.267600437139    -0.312800434111    -0.901068881626
H     -0.315795900000    -1.696643500000    -0.064766500000    -0.204197028416     0.009615926546    -0.738369461352
H      0.258996600000    -0.104159000000     0.273691800000    -0.122281675541     0.211190429541    -0.202448678135
H     -1.478712900000    -0.326002500000    -0.020154700000     0.186353571136    -0.166350387038    -0.030133331315
C     -0.474095300000    -0.644805200000    -0.346171500000    -0.127475304317     0.258190198861     1.872020352429
5
Properties=species:S:1:pos:R:3:forces:R:3 energy=-1101.563483451616 pbc="F F F"
H     -0.338241900000    -0.377317100000    -1.370207400000     0.184091000184    -0.178948793475    -0.895978096985
H     -0.302061300000    -1.700259600000    -0.084465200000    -0.310640707294     0.091222747019    -0.594439095566
H      0.253269500000    -0.108987100000     0.266428400000     0.115905339222     0.360108735835    -0.018460522085
H     -1.470092900000    -0.321947100000    -0.016752600000    -0.091891233891    -0.156631616358    -0.013009782974
C     -0.476967900000    -0.643366000000    -0.344410700000     0.102432757644    -0.115956761289     1.522041763811
5
Properties=species:S:1:pos:R:3:forces:R:3 energy=-1101.586471902644 pbc="F F F"
H     -0.322916800000    -0.399075900000    -1.383602500000     0.013061205041    -0.110917398714    -0.407211349290
H     -0.292621100000    -1.702706800000    -0.112389600000    -0.369930350649     0.080938333600    -0.365765163215
H      0.249118100000    -0.108851500000     0.258864600000     0.312491901709     0.440121472227     0.130406362141
H     -1.462770000000    -0.320059100000    -0.013541600000    -0.376820907639    -0.125007045097    -0.003599544696
C     -0.479711000000    -0.642042700000    -0.340912800000     0.420478242599    -0.285341050285     0.646015428858
5
Properties=species:S:1:pos:R:3:forces:R:3 energy=-1101.593929999325 pbc="F F F"
H     -0.307449200000    -0.422376000000    -1.402516700000    -0.195043900474    -0.032138791932     0.241478027057
H     -0.288299800000    -1.704098200000    -0.145382700000    -0.377900771048     0.002725369556    -0.089063020201
H      0.249166400000    -0.102710000000     0.252990700000     0.359851625499     0.386899632789     0.166607497373
H     -1.460560100000    -0.319939000000    -0.010422200000    -0.523013844377    -0.109734691171    -0.031367460925
C     -0.481959600000    -0.641034800000    -0.336660200000     0.735952624199    -0.247905785443    -0.287809309505
5
Properties=species:S:1:pos:R:3:forces:R:3 energy=-1101.583487629938 pbc="F F F"
H     -0.294675000000    -0.446057500000    -1.418261900000    -0.372141499534     0.103152666584     0.716875037308
H     -0.289219700000    -1.705469500000    -0.179616300000    -0.342985187494    -0.091017058750     0.194221147401
H      0.254041300000    -0.091316200000     0.249306500000     0.228879620620     0.194221147401     0.082943794217
H     -1.465399400000    -0.321406800000    -0.007803400000    -0.438887342617    -0.136628432259    -0.110248911842
C     -0.483355200000    -0.640304400000    -0.332711600000     0.925134409025    -0.069934011243    -0.883945333285
5
Properties=species:S:1:pos:R:3:forces:R:3 energy=-1101.565297090495 pbc="F F F"
H     -0.287020600000    -0.468241100000    -1.424357700000    -0.472003153824     0.282924213132     0.861576734101
H     -0.294911800000    -1.708062900000    -0.211164300000    -0.281175862851    -0.140793619694     0.448297580895
H      0.262001000000    -0.077287000000     0.246724200000    -0.003805232965    -0.069779745042    -0.051884865694
H     -1.476158400000    -0.324821300000    -0.006760100000    -0.163779283683    -0.190415914436    -0.214687130103
C     -0.483681900000    -0.639655100000    -0.329759300000     0.920455000920     0.118013643973    -1.043302319199
5
Properties=species:S:1:pos:R:3:forces:R:3 energy=-1101.548962095464 pbc="F F F"
H     -0.285864600000    -0.486452400000    -1.418798800000    -0.477093938465     0.471128978683     0.653677316854
H     -0.304525800000    -1.712531800000    -0.236498400000    -0.205636846295    -0.110248911842     0.646735337797
H      0.269929600000    -0.064201600000     0.243460700000    -0.219006583738    -0.305961299188    -0.149432526965
H     -1.489151100000    -0.330884400000    -0.008696000000     0.162905108543    -0.228313977882    -0.295214087166
C     -0.482943500000    -0.638880400000    -0.328000300000     0.738523727553     0.173240944028    -0.855920306721
5
Properties=species:S:1:pos:R:3:forces:R:3 energy=-1101.539016061759 pbc="F F F"
H     -0.291284900000    -0.498102800000    -1.404428100000    -0.392916014638     0.627760595041     0.155397486747
H     -0.317008700000    -1.718457000000    -0.252863700000    -0.120893279730    -0.006016381850     0.768502792667
H      0.274919900000    -0.055275600000     0.238216300000    -0.325655950884    -0.435904862726    -0.152363584789
H     -1.499975000000    -0.340080800000    -0.014686400000     0.395744228328    -0.211910338480    -0.308172448073
C     -0.481347600000    -0.637922000000    -0.327227900000     0.443206796253     0.025711033545    -0.463621356888
5
Properties=species:S:1:pos:R:3:forces:R:3 energy=-1101.536572479294 pbc="F F F"
H     -0.302142100000    -0.501045400000    -1.388020700000    -0.252739459750     0.712658427807    -0.455393826153
H     -0.331174700000    -1.724430000000    -0.258576500000    -0.026585208686     0.128349479458     0.796065020628
H      0.275525000000    -0.052286000000     0.230966500000    -0.285135362017    -0.423152190088    -0.046434126583
H     -1.505468400000    -0.352163800000    -0.024890800000     0.448194736761    -0.126806817445    -0.234741736268
C     -0.479233600000    -0.636950400000    -0.326999100000     0.115802495088    -0.291563120403    -0.059855286093
5
Properties=species:S:1:pos:R:3:forces:R:3 energy=-1101.544211531692 pbc="F F F"
H     -0.316539700000    -0.494135900000    -1.377758700000    -0.112254372459     0.687718725268    -0.866718940810
H     -0.345701900000    -1.728638800000    -0.253258000000     0.077081678569     0.234278937664     0.723508483963
H      0.272289200000    -0.055066200000     0.223164800000    -0.116573826094    -0.278039116758     0.142387703774
H     -1.504915700000    -0.365951200000    -0.038289000000     0.304778591645     0.017586346945    -0.082686683881
C     -0.476977700000    -0.636327000000    -0.326866400000    -0.153340604064    -0.661802003454     0.083458014888
5
Properties=species:S:1:pos:R:3:forces:R:3 energy=-1101.562729151996 pbc="F F F"
H     -0.332560100000    -0.477752000000    -1.379069900000    -0.012341296102     0.529852979300    -0.808252050528
H     -0.359147400000    -1.729658700000    -0.237909600000     0.181982695433     0.261944009759     0.563534433245
H      0.267482300000    -0.061655100000     0.217377900000     0.102227069376    -0.061912168777     0.347150374928
H     -1.500255400000    -0.379458500000    -0.052793800000     0.026790896954     0.190055959966     0.112820015197
C     -0.474889700000    -0.636471100000    -0.326680400000    -0.298967898064    -0.920197890584    -0.215304194908
5
Properties=species:S:1:pos:R:3:forces:R:3 energy=-1101.580376007946 pbc="F F F"
H     -0.348790700000    -0.454084000000    -1.391185300000     0.056255741397     0.257264601654    -0.320359477974
H     -0.370059100000    -1.727128300000    -0.214735400000     0.273668241056     0.190055959966     0.346996108727
H      0.264018600000    -0.069148300000     0.216357200000     0.246157435162     0.122435941742     0.470203381475
H     -1.495219000000    -0.390326000000    -0.065732700000    -0.248625694382     0.343447986097     0.296293950575
C     -0.473141600000    -0.637671200000    -0.326776000000    -0.327609989433    -0.913410177728    -0.793185384871
5
Properties=species:S:1:pos:R:3:forces:R:3 energy=-1101.584381796083 pbc="F F F"
H     -0.364231900000    -0.426869400000    -1.407652900000     0.124749934762    -0.063609096991     0.285701004755
H     -0.377173300000    -1.722026300000    -0.186722700000     0.335374721564     0.043245958423     0.111791573855
H      0.263790100000    -0.075073000000     0.221731000000     0.213041623956     0.185273707727     0.433385181439
H     -1.493469900000    -0.396464700000    -0.074602100000    -0.360314424103     0.427883020260     0.412559244267
C     -0.471774600000    -0.639914200000    -0.327791500000    -0.312954700313    -0.592793589419    -1.243488426382
5
Properties=species:S:1:pos:R:3:forces:R:3 energy=-1101.575847489084 pbc="F F F"
H     -0.377911500000    -0.400506300000    -1.420333800000     0.204711249087    -0.352549691972     0.715178109094
H     -0.379641600000    -1.716324000000    -0.157131100000     0.353680977448    -0.107729230555    -0.112820015197
H      0.266342900000    -0.078558400000     0.232987600000     0.011621387162     0.118630708778     0.240192475380
H     -1.496480400000    -0.396726600000    -0.077804000000    -0.232582009450     0.414873237286     0.436007706860
C     -0.470779800000    -0.642834500000    -0.330227700000    -0.337637292516    -0.073327867671    -1.278661120272
5
Properties=species:S:1:pos:R:3:forces:R:3 energy=-1101.563560731953 pbc="F F F"
H     -0.388720300000    -0.378970000000    -1.423375200000     0.287706465371    -0.547593592447     0.824707111997
H     -0.377213700000    -1.712038800000    -0.129092200000     0.323444801999    -0.181931273366    -0.313983141654
H      0.268997600000    -0.080447800000     0.247525700000    -0.241580871191    -0.004165187434    -0.023705572929
H     -1.502550800000    -0.391281600000    -0.074993100000     0.061089415703     0.314291674057     0.379803387530
C     -0.470189200000    -0.645843700000    -0.334123800000    -0.431122610487     0.419346957123    -0.866667518743
5
Properties=species:S:1:pos:R:3:forces:R:3 energy=-1101.554215525650 pbc="F F F"
H     -0.395511100000    -0.364950800000    -1.415278300000     0.361497131646    -0.613208150054     0.582200643598
H     -0.370305500000    -1.710168400000    -0.105419300000     0.250322622596    -0.144650274726    -0.487481196018
H      0.268364800000    -0.082357100000     0.261772600000    -0.415078925554    -0.095902155124    -0.254333543830
H     -1.507759900000    -0.381491800000    -0.066916100000     0.360777222707     0.164910569159     0.277062097484
C     -0.470108800000    -0.648382200000    -0.339006200000    -0.556798142456     0.688078679738    -0.117807955704
5
Properties=species:S:1:pos:R:3:forces:R:3 energy=-1101.548679913391 pbc="F F F"
H     -0.397273400000    -0.359351200000    -1.399378900000     0.412970620804    -0.541371522329     0.042988848088
H     -0.359924600000    -1.710235300000    -0.088527300000     0.148866884227    -0.033321499475    -0.621229992520
H      0.262105300000    -0.085511700000     0.272581800000    -0.431071188419    -0.104901016865    -0.380009075799
H     -1.508074900000    -0.369395600000    -0.054970500000     0.527487564214     0.012289874035     0.160951069993
C     -0.470681000000    -0.650140200000    -0.344010400000    -0.658305302892     0.667098476365     0.797093461970
5
Properties=species:S:1:pos:R:3:forces:R:3 energy=-1101.544871952031 pbc="F F F"
H     -0.393290300000    -0.361225000000    -1.383001800000     0.432099629761    -0.379957653732    -0.593924874895
H     -0.347467900000    -1.710776600000    -0.080261200000     0.039389303391     0.071990893927    -0.691369692032
H      0.250012800000    -0.090025300000     0.278226000000    -0.273154020385    -0.020414560635    -0.372552876071
H     -1.501241200000    -0.357089200000    -0.040760700000     0.491646383452    -0.107574964353     0.053324683573
C     -0.472020700000    -0.651134500000    -0.348086900000    -0.690186984488     0.435544908256     1.604317071156
5
Properties=species:S:1:pos:R:3:forces:R:3 energy=-1101.547972417354 pbc="F F F"
H     -0.383317900000    -0.368435900000    -1.374638600000     0.396772669670    -0.230627970901    -0.971619957675
H     -0.334446100000    -1.710398900000    -0.081575100000    -0.058724000617     0.102535601778    -0.674554676093
H      0.234257700000    -0.094742000000     0.278791600000     0.022728553654     0.133543108234    -0.247597253041
H     -1.487764500000    -0.346225200000    -0.025776200000     0.250116934328    -0.173343788162    -0.030647551986
C     -0.474161300000    -0.651620200000    -0.350324400000    -0.610894157035     0.167584516648     1.924676549130
5
Properties=species:S:1:pos:R:3:forces:R:3 energy=-1101.561828727232 pbc="F F F"
H     -0.367886200000    -0.378990100000    -1.379237200000     0.279838889106    -0.173138099894    -0.814062744109
H     -0.322217000000    -1.708700600000    -0.092228000000    -0.131640491752     0.036201135232    -0.566362646935
H      0.218877100000    -0.097576300000     0.275953100000     0.364376767403     0.295728307837    -0.070139699511
H     -1.470955100000    -0.337723100000    -0.011187300000    -0.134777237844    -0.183679623647    -0.086389072712
C     -0.477005200000    -0.651896000000    -0.350369800000    -0.377900771048     0.024631170136     1.537108429469
5
Properties=species:S:1:pos:R:3:forces:R:3 energy=-1101.573299959125 pbc="F F F"
H     -0.348633000000    -0.392044100000    -1.394719900000     0.082326729412    -0.177868930066    -0.225640030393
H     -0.311796500000    -1.706570800000    -0.110728800000    -0.174937872242    -0.093331051769    -0.387208165191
H      0.208491200000    -0.096366100000     0.272070500000     0.613259572121     0.374352648419     0.054815923518
H     -1.456043400000    -0.331756800000     0.002207700000    -0.525893480134    -0.163727861616    -0.128966544263
C     -0.480278400000    -0.652125100000    -0.348653800000     0.005142206709     0.060369506764     0.686741705993
5
Properties=species:S:1:pos:R:3:forces:R:3 energy=-1101.571734760200 pbc="F F F"
H     -0.328267500000    -0.407557700000    -1.413302500000    -0.149021150428    -0.158482810773     0.420375398465
H     -0.303799400000    -1.705736100000    -0.134612500000    -0.195506699078    -0.211807494346    -0.173909430900
H      0.206442800000    -0.090101300000     0.268793700000     0.650951947298     0.295831151972     0.045199996973
H     -1.448291600000    -0.328101400000     0.013772100000    -0.743203135659    -0.158894187310    -0.192112842650
C     -0.483540600000    -0.652269700000    -0.346122800000     0.436624771665     0.233147652188    -0.099553121887
5
Properties=species:S:1:pos:R:3:forces:R:3 energy=-1101.564884293769 pbc="F F F"
H     -0.309955100000    -0.425206100000    -1.426292300000    -0.352035471301    -0.068699881633     0.822187430710
H     -0.298529800000    -1.707762800000    -0.160934400000    -0.206819553838    -0.241940825661     0.038155173781
H      0.213245700000    -0.079867900000     0.266004500000     0.466398148511     0.071682361524    -0.085360631370
H     -1.450601900000    -0.326730000000     0.022589900000    -0.670955131397    -0.201934457464    -0.300407715943
C     -0.486299700000    -0.652136400000    -0.343667100000     0.763514852159     0.440789959100    -0.474471413044
5
Properties=species:S:1:pos:R:3:forces:R:3 energy=-1101.561087761191 pbc="F F F"
H     -0.296486800000    -0.443740700000    -1.428193400000    -0.481979034839     0.085514897571     0.861628156168
H     -0.296158500000    -1.713034800000    -0.186750200000    -0.218646629269    -0.152209318588     0.227336958607
H      0.226440500000    -0.068688700000     0.261994200000     0.162853686476    -0.202037301598    -0.238701235434
H     -1.462016600000    -0.328226400000     0.027172900000    -0.353321022979    -0.277370629886    -0.430865500151
C     -0.488180700000    -0.651494900000    -0.341727000000     0.891041578544     0.545948086300    -0.419449801257
5
Properties=species:S:1:pos:R:3:forces:R:3 energy=-1101.559175344981 pbc="F F F"
H     -0.289657500000    -0.461038400000    -1.418449000000    -0.517254572863     0.273308286586     0.541062989926
H     -0.296845300000    -1.720339500000    -0.209420400000    -0.226617049668     0.020311716501     0.383402932227
H      0.241937000000    -0.060263600000     0.254734400000    -0.124441402359    -0.412816354602    -0.314188829923
H     -1.478286100000    -0.333583700000     0.025765100000     0.044840042503    -0.332700774075    -0.524402240189
C     -0.489033000000    -0.650231100000    -0.340253100000     0.823421560320     0.451794281457    -0.085926274108
5
Properties=species:S:1:pos:R:3:forces:R:3 energy=-1101.555797051406 pbc="F F F"
H     -0.289965000000    -0.474517900000    -1.401440500000    -0.461770162473     0.452514190396    -0.042628893618
H     -0.300685200000    -1.727358000000    -0.226772200000    -0.216744012786     0.194941056340     0.495605882618
H      0.255827400000    -0.057459700000     0.243226400000    -0.296448216777    -0.487481196018    -0.260812724283
H     -1.494034100000    -0.343520900000     0.017121200000     0.354400886388    -0.321130808980    -0.526716233208
C     -0.488930000000    -0.648455500000    -0.338871700000     0.620561505648     0.161002492060     0.334346280222
5
Properties=species:S:1:pos:R:3:forces:R:3 energy=-1101.553263127139 pbc="F F F"
H     -0.296675600000    -0.481731100000    -1.385066900000    -0.353115334710     0.570270724033    -0.652134654841
H     -0.307524400000    -1.731733000000    -0.237249600000    -0.176069157718     0.296396794710     0.550936026807
H      0.265754300000    -0.061294700000     0.228218000000    -0.308275292207    -0.401709188111    -0.078007275776
H     -1.505046100000    -0.357855900000     0.001234000000     0.471231822817    -0.225228653856    -0.415233191756
C     -0.488102200000    -0.646501400000    -0.337112100000     0.366382228020    -0.239678254709     0.594387673499
5
Properties=species:S:1:pos:R:3:forces:R:3 energy=-1101.559109221313 pbc="F F F"
H     -0.308342100000    -0.481093200000    -1.377452800000    -0.250785421200     0.573818846663    -0.946268878599
H     -0.316791000000    -1.732092200000    -0.240088100000    -0.102124225242     0.282924213132     0.540445925121
H      0.271540600000    -0.070594300000     0.212219700000    -0.171235483411    -0.179103059676     0.191701466113
H     -1.509717500000    -0.375257200000    -0.020348000000     0.367822045898    -0.055175877988    -0.200906016123
C     -0.486839200000    -0.644827400000    -0.334697200000     0.156271661888    -0.622824076600     0.414718971085
5
Properties=species:S:1:pos:R:3:forces:R:3 energy=-1101.570835968120 pbc="F F F"
H     -0.323561100000    -0.472576200000    -1.382477600000    -0.179822968615     0.445160834802    -0.731427482295
H     -0.327458500000    -1.728625500000    -0.235431100000    -0.003496700562     0.153494870265     0.467066635383
H      0.275008400000    -0.082330500000     0.198909900000     0.031316038858     0.102432757644     0.463107136217
H     -1.509436400000    -0.393383500000    -0.044673800000     0.097753349539     0.155037532278     0.072350848396
C     -0.485381600000    -0.643871300000    -0.331845800000     0.053993170445    -0.856331683258    -0.271354248036
5
Properties=species:S:1:pos:R:3:forces:R:3 energy=-1101.573019681849 pbc="F F F"
H     -0.341300200000    -0.457937300000    -1.397329200000    -0.110300333909     0.221629109160    -0.165064835360
H     -0.338167700000    -1.723095300000    -0.224287600000     0.101147205967    -0.047822522394     0.346584732190
H      0.278819700000    -0.092705900000     0.191955200000     0.154317623339     0.320770854510     0.623132609002
H     -1.507818200000    -0.409353900000    -0.067996400000    -0.196895094889     0.351469828563     0.336403162906
C     -0.483850600000    -0.643898200000    -0.329332100000     0.051627755359    -0.846098691907    -1.141209934939
5
Properties=species:S:1:pos:R:3:forces:R:3 energy=-1101.562182203136 pbc="F F F"
H     -0.360544100000    -0.440222100000    -1.414483200000    -0.008021842466    -0.025608189411     0.415953100695
H     -0.347482300000    -1.718217700000    -0.208320100000     0.187587700746    -0.233096230121     0.200391795452
H      0.284552300000    -0.098783600000     0.193499500000     0.077801587508     0.376255264901     0.592073680480
H     -1.508768100000    -0.420486200000    -0.086695700000    -0.332495085807     0.476579717795     0.526150590470
C     -0.482256100000    -0.644896100000    -0.328132500000     0.074973373818    -0.594284829365    -1.734672011230
5
Properties=species:S:1:pos:R:3:forces:R:3 energy=-1101.551190707980 pbc="F F F"
H     -0.379861100000    -0.422816600000    -1.426088200000     0.127012505713    -0.231604990176     0.766188799648
H     -0.354215300000    -1.716466500000    -0.189556300000     0.235153112805    -0.301744689687     0.045251419040
H      0.291156400000    -0.099787300000     0.203127400000    -0.180645721689     0.268217501944     0.386128301782
H     -1.514064700000    -0.425068400000    -0.098150400000    -0.209699189595     0.496737168094     0.611151267370
C     -0.480580700000    -0.646581700000    -0.328921200000     0.027665072095    -0.231450723974    -1.808514099572
5
Properties=species:S:1:pos:R:3:forces:R:3 energy=-1101.548674471114 pbc="F F F"
H     -0.397389000000    -0.408558600000    -1.427348700000     0.271302825969    -0.354915107058     0.786963314753
H     -0.357712500000    -1.718744800000    -0.170160800000     0.234998846603    -0.206613865570    -0.110711710446
H      0.295191900000    -0.097122100000     0.218072200000    -0.475654120587     0.085874852041     0.102689867980
H     -1.522070900000    -0.422808600000    -0.101156900000     0.103512621053     0.419552645391     0.601175386355
C     -0.478884400000    -0.648547300000    -0.331787700000    -0.134571549576     0.056307163464    -1.380168280709
5
Properties=species:S:1:pos:R:3:forces:R:3 energy=-1101.552556175330 pbc="F F F"
H     -0.411137600000    -0.399149000000    -1.417983300000     0.398521019951    -0.373735583614     0.470100537341
H     -0.357964200000    -1.723779500000    -0.152305100000     0.196432296286     0.003342434361    -0.256904647184
H      0.292703000000    -0.093220400000     0.234492500000    -0.657071173282    -0.069419790572    -0.150666656575
H     -1.528609300000    -0.414743500000    -0.095822900000     0.434156512445     0.282050037991     0.523065266444
C     -0.477353800000    -0.650465300000    -0.336241700000    -0.372141499534     0.157814323901    -0.585697344161
5
Properties=species:S:1:pos:R:3:forces:R:3 energy=-1101.557468646849 pbc="F F F"
H     -0.419351800000    -0.394854500000    -1.402337800000     0.485835689871    -0.292488717611    -0.101147205967
H     -0.355487100000    -1.728765600000    -0.138014700000     0.138736737010     0.215098506639    -0.374249804285
H      0.281244600000    -0.090186000000     0.248922100000    -0.641798819356    -0.135497146783    -0.302721708962
H     -1.529230100000    -0.402747100000    -0.083212300000     0.628891880517     0.127680992586     0.402069142580
C     -0.476261100000    -0.652215100000    -0.341367700000    -0.612128286645     0.085052098968     0.376100998700
5
Properties=species:S:1:pos:R:3:forces:R:3 energy=-1101.562516086843 pbc="F F F"
H     -0.420827000000    -0.394594500000    -1.388137700000     0.516637508058    -0.161156758262    -0.689621341750
H     -0.351065600000    -1.730865100000    -0.128904600000     0.081915352875     0.321182231047    -0.438475966081
H      0.261045300000    -0.088922300000     0.259265100000    -0.416930119970    -0.092662564897    -0.323650490267
H     -1.521293700000    -0.388939700000    -0.064996600000     0.610225670163    -0.008278952802     0.258601575398
C     -0.475882500000    -0.653871900000    -0.346064700000    -0.791796989059    -0.059032533020     1.193763287506
5
Properties=species:S:1:pos:R:3:forces:R:3 energy=-1101.572674641474 pbc="F F F"
H     -0.415153500000    -0.396638000000    -1.383197100000     0.476631139862    -0.069162680237    -0.941846580829
H     -0.345477800000    -1.728658400000    -0.125854300000     0.040572010934     0.266212041327    -0.432716694566
H      0.235200400000    -0.088845800000     0.265219800000    -0.028436403101     0.041703296410    -0.223840258045
H     -1.505069100000    -0.375203900000    -0.043167500000     0.370855947857    -0.104695328596     0.110660288379
C     -0.476424400000    -0.655591300000    -0.349409900000    -0.859828383820    -0.134828659911     1.487537556793
5
Properties=species:S:1:pos:R:3:forces:R:3 energy=-1101.583407900577 pbc="F F F"
H     -0.402896400000    -0.399763600000    -1.390810300000     0.359851625499    -0.070242543646    -0.666738521895
H     -0.339295000000    -1.722898000000    -0.128780800000     0.021237313708     0.064226161796    -0.356612035272
H      0.209023400000    -0.088151400000     0.268107400000     0.414256172481     0.202551522269    -0.069008414035
H     -1.483841000000    -0.362876700000    -0.019771100000    -0.029876220980    -0.153546292332    -0.023705572929
C     -0.477961700000    -0.657452500000    -0.351072700000    -0.765571734843    -0.043245958423     1.116064544132
5
Properties=species:S:1:pos:R:3:forces:R:3 energy=-1101.577573779414 pbc="F F F"
H     -0.385676900000    -0.403937800000    -1.407356100000     0.178280306603    -0.126138330573    -0.050959268487
H     -0.332794600000    -1.716312800000    -0.136646100000     0.018923320689    -0.199209087909    -0.233764716993
H      0.188526000000    -0.084713100000     0.269961500000     0.752459107735     0.284621141346     0.028539247235
H     -1.463068000000    -0.352662500000     0.003313000000    -0.459507591521    -0.171132639277    -0.143159034780
C     -0.480381300000    -0.659348200000    -0.351457500000    -0.490206565574     0.211498961943     0.399240928890
5
Properties=species:S:1:pos:R:3:forces:R:3 energy=-1101.555787255307 pbc="F F F"
H     -0.365992900000    -0.409851600000    -1.424652200000    -0.030698974053    -0.160693959658     0.540857301658
H     -0.326028800000    -1.712429700000    -0.147775100000     0.016712171804    -0.387568119661    -0.102072803175
H      0.178285600000    -0.077485500000     0.272039300000     0.854891865379     0.202448678135    -0.020003184098
H     -1.448553400000    -0.344849200000     0.024389200000    -0.740169233700    -0.192421375053    -0.266417729596
C     -0.483366000000    -0.660988000000    -0.351355300000    -0.100890095632     0.538183354169    -0.152209318588
5
Properties=species:S:1:pos:R:3:forces:R:3 energy=-1101.539205453005 pbc="F F F"
H     -0.346715900000    -0.417940100000    -1.434705000000    -0.220446401617    -0.131794757953     0.855714618453
H     -0.319053900000    -1.713745900000    -0.160362700000    -0.006582024588    -0.384277107367     0.005964959782
H      0.179723200000    -0.067602800000     0.273684600000     0.709264571379    -0.030133331315    -0.195198166675
H     -1.444081100000    -0.339771200000     0.041704900000    -0.750042270582    -0.246620233766    -0.413227731139
C     -0.486471600000    -0.662001800000    -0.351386800000     0.267754703340     0.792876852468    -0.253150836286
5
Properties=species:S:1:pos:R:3:forces:R:3 energy=-1101.539074566238 pbc="F F F"
H     -0.330460300000    -0.427797000000    -1.433201500000    -0.354195198119    -0.036972466238     0.805629525107
H     -0.312206800000    -1.720203600000    -0.172906700000    -0.059289643355    -0.180080078951     0.080681223265
H      0.190922800000    -0.058191600000     0.272579000000     0.417135808238    -0.304778591645    -0.385511236977
H     -1.449817900000    -0.338176200000     0.053222400000    -0.511649567550    -0.323907600603    -0.568008153081
C     -0.489275100000    -0.662103300000    -0.351674400000     0.507947178720     0.845533049169     0.067260063754
5
Properties=species:S:1:pos:R:3:forces:R:3 energy=-1101.547993098008 pbc="F F F"
H     -0.319075100000    -0.438117100000    -1.420819800000    -0.411582224992     0.104078263791     0.411170848455
H     -0.306207800000    -1.729075100000    -0.184349500000    -0.126806817445     0.115751073021     0.130920582812
H      0.207946800000    -0.052955500000     0.266189200000     0.108963360165    -0.501827952736    -0.479665041820
H     -1.462593200000    -0.341092700000     0.056836100000    -0.164087816086    -0.380163342000    -0.678874129729
C     -0.491496600000    -0.661233800000    -0.351860500000     0.593410654224     0.661956269656     0.616344896147
5
Properties=species:S:1:pos:R:3:forces:R:3 energy=-1101.556516248339 pbc="F F F"
H     -0.313367500000    -0.446969400000    -1.402935500000    -0.396618403469     0.252893725951    -0.196278030084
H     -0.301970900000    -1.736392000000    -0.193975100000    -0.182702604372     0.356817723541     0.166658919440
H      0.226595200000    -0.054571000000     0.253259900000    -0.116213871624    -0.549393364795    -0.422792235618
H     -1.477721600000    -0.349258000000     0.051057200000     0.138428204608    -0.372758564339    -0.692038178904
C     -0.493032100000    -0.659602100000    -0.351323500000     0.557106674858     0.312286213440     1.144295258964
5
Properties=species:S:1:pos:R:3:forces:R:3 energy=-1101.566072614996 pbc="F F F"
H     -0.313173000000    -0.452340200000    -1.387729600000    -0.347150374928     0.349978588618    -0.739295058560
H     -0.300253000000    -1.738898600000    -0.201280900000    -0.204916937356     0.440172894295     0.190107382034
H      0.243776900000    -0.063682000000     0.234586000000    -0.204608404953    -0.427985864394    -0.216024103847
H     -1.491086600000    -0.362547400000     0.035732500000     0.293002938282    -0.283644122071    -0.581275046391
C     -0.493918000000    -0.657607100000    -0.349472300000     0.463621356888    -0.078624340581     1.346435404697
5
Properties=species:S:1:pos:R:3:forces:R:3 energy=-1101.581923791583 pbc="F F F"
H     -0.317861000000    -0.452938700000    -1.382417800000    -0.313108966514     0.338922844193    -0.898086401735
H     -0.301354500000    -1.735466300000    -0.205942200000    -0.184399532586     0.331980865136     0.198077802433
H      0.258261000000    -0.078619800000     0.213008500000    -0.151489409649    -0.165219101562     0.093536740038
H     -1.500563700000    -0.379722700000     0.012401100000     0.265286444120    -0.121510344535    -0.356663457340
C     -0.494257200000    -0.655696200000    -0.346096000000     0.383454354294    -0.384277107367     0.963135316605
5
Properties=species:S:1:pos:R:3:forces:R:3 energy=-1101.593215156214 pbc="F F F"
H     -0.326963100000    -0.448925300000    -1.389113400000    -0.301333313150     0.215304194908    -0.583126240806
H     -0.304994100000    -1.727570700000    -0.207851500000    -0.126344018841     0.066488732748     0.187124902142
H      0.270720300000    -0.095797700000     0.192756100000    -0.019231853092     0.158534232840     0.414564704883
H     -1.506496300000    -0.398551700000    -0.015844800000     0.094565181379     0.081195443936    -0.063506252857
C     -0.494140400000    -0.654220400000    -0.341640900000     0.352138315436    -0.521625448566     0.044942886637
5
Properties=species:S:1:pos:R:3:forces:R:3 energy=-1101.582310737493 pbc="F F F"
H     -0.340259900000    -0.441960500000    -1.403688700000    -0.268526034346     0.036715355903    -0.023859839130
H     -0.310381400000    -1.718810600000    -0.207163600000    -0.050033671279    -0.253305102488     0.156425928089
H      0.282850600000    -0.110827900000     0.178186600000     0.062066434978     0.420015443995     0.630794496999
H     -1.511141000000    -0.416254600000    -0.044981200000    -0.105003860999     0.274953792733     0.229496685425
C     -0.493605400000    -0.653340300000    -0.337144700000     0.361240021311    -0.478482334277    -0.992960115517
5
Properties=species:S:1:pos:R:3:forces:R:3 energy=-1101.555762220832 pbc="F F F"
H     -0.357248300000    -0.434459400000    -1.418681900000    -0.178691683139    -0.124904200963     0.470306225610
H     -0.316480800000    -1.713481800000    -0.204305900000     0.016352217335    -0.473545815836     0.107986340890
H      0.295642700000    -0.120174600000     0.172229700000    -0.028025026564     0.514837735710     0.660619295911
H     -1.517117100000    -0.430178300000    -0.070978800000    -0.188050499350     0.408651167168     0.459764701856
C     -0.492644600000    -0.653011700000    -0.333782600000     0.378363569652    -0.324833197811    -1.698727986334
5
Properties=species:S:1:pos:R:3:forces:R:3 energy=-1101.536152879721 pbc="F F F"
H     -0.376674600000    -0.428633600000    -1.427386900000    -0.034504207018    -0.223891680112     0.712915538142
H     -0.322390700000    -1.714516800000    -0.199951400000     0.049725138876    -0.468506453261     0.046125594180
H      0.307838700000    -0.122525100000     0.175313300000    -0.288889172914     0.431225454621     0.513397917831
H     -1.525493000000    -0.438483300000    -0.090644200000    -0.076361769629     0.454262540677     0.599786990543
C     -0.491243300000    -0.653067300000    -0.332365600000     0.349772900349    -0.193089861925    -1.872020352429
5
Properties=species:S:1:pos:R:3:forces:R:3 energy=-1101.532401790158 pbc="F F F"
H     -0.396551700000    -0.425845400000    -1.426472900000     0.137348341199    -0.240243897447     0.643392903436
H     -0.327646100000    -1.721840500000    -0.194957800000     0.048233898931    -0.235461645207    -0.021134469574
H      0.315940600000    -0.118955200000     0.185478200000    -0.591919414279     0.246723077900     0.273616818988
H     -1.534767000000    -0.440523000000    -0.102007900000     0.179103059676     0.417701450976     0.655991309873
C     -0.489440000000    -0.653362900000    -0.333101900000     0.226925582070    -0.188564720021    -1.551712296522
5
Properties=species:S:1:pos:R:3:forces:R:3 energy=-1101.537833182808 pbc="F F F"
H     -0.414512000000    -0.426325100000    -1.416892900000     0.303287351700    -0.174423651571     0.281073018717
H     -0.332245400000    -1.732341200000    -0.190251200000     0.030236175449     0.099450277753    -0.080218424661
H      0.315881600000    -0.111930300000     0.199481600000    -0.787631801625     0.060112396429     0.037795219312
H     -1.541522600000    -0.436776000000    -0.104261300000     0.444492347930     0.327198612897     0.645706896455
C     -0.487379200000    -0.653893300000    -0.335629300000     0.009358816210    -0.312234791373    -0.884356709822
5
Properties=species:S:1:pos:R:3:forces:R:3 energy=-1101.546470620960 pbc="F F F"
H     -0.428270700000    -0.429177900000    -1.403587400000     0.429734214675    -0.050239359547    -0.255824783775
H     -0.336413400000    -1.741522300000    -0.186640600000     0.018306255884     0.373735583614    -0.115802495088
H      0.305023900000    -0.103983900000     0.214099000000    -0.786603360283    -0.059546753691    -0.126652551244
H     -1.542188700000    -0.428472300000    -0.097535000000     0.596495978250     0.214635708036     0.581017936055
C     -0.485312400000    -0.654795100000    -0.339183200000    -0.258293042995    -0.478328068076    -0.082686683881
5
Properties=species:S:1:pos:R:3:forces:R:3 energy=-1101.561336473259 pbc="F F F"
H     -0.436086900000    -0.432730300000    -1.393777300000     0.490617942110     0.077081678569    -0.713275492612
H     -0.340300800000    -1.745675700000    -0.184610400000     0.026482364552     0.474008614440    -0.116522404027
H      0.283403300000    -0.096756600000     0.227065100000    -0.569550815094    -0.081761086674    -0.187073480075
H     -1.534710700000    -0.417159000000    -0.082727200000     0.570630678503     0.104952438932     0.469843427006
C     -0.483548600000    -0.656252600000    -0.342850900000    -0.518231592138    -0.574230223199     0.546976527641
5
Properties=species:S:1:pos:R:3:forces:R:3 energy=-1101.584904254695 pbc="F F F"
H     -0.437122700000    -0.435277600000    -1.393514900000     0.474574257178     0.142387703774    -0.801001539068
H     -0.343789100000    -1.743440200000    -0.184166300000     0.058415468215     0.362319884720    -0.078830028850
H      0.254010200000    -0.090566500000     0.237531700000    -0.179617280347    -0.013524003645    -0.146295780872
H     -1.519454300000    -0.404355500000    -0.061382600000     0.363759702598     0.013061205041     0.322313516523
C     -0.482388400000    -0.658369100000    -0.345922600000    -0.717286413845    -0.504244789889     0.703762410200
5
Properties=species:S:1:pos:R:3:forces:R:3 energy=-1101.602286071746 pbc="F F F"
H     -0.431595000000    -0.435934300000    -1.403937600000     0.387568119661     0.122281675541    -0.446240698211
H     -0.346438900000    -1.736336700000    -0.184791700000     0.107986340890     0.077235944770    -0.011364276827
H      0.222182000000    -0.084519200000     0.246011200000     0.277576318154     0.092559720763    -0.054713079384
H     -1.499251900000    -0.391342600000    -0.035550500000     0.031830259529    -0.057438448940     0.151592253783
C     -0.482061100000    -0.661058900000    -0.348217200000    -0.805372414771    -0.235101690738     0.360468690304
5
Properties=species:S:1:pos:R:3:forces:R:3 energy=-1101.593188761170 pbc="F F F"
H     -0.420699800000    -0.434936200000    -1.420356200000     0.249294181255     0.053376105640     0.124441402359
H     -0.347573800000    -1.728215400000    -0.185566100000     0.159562674182    -0.259475750539     0.064226161796
H      0.194144400000    -0.077238200000     0.253675700000     0.652905985848     0.144804540927    -0.004319453636
H     -1.478618800000    -0.379116300000    -0.007610200000    -0.313314654782    -0.115391118551    -0.032961545005
C     -0.482666600000    -0.664010800000    -0.350104500000    -0.748756718904     0.176583378389    -0.151540831716
5
Properties=species:S:1:pos:R:3:forces:R:3 energy=-1101.563562092522 pbc="F F F"
H     -0.406339900000    -0.433184200000    -1.435143500000     0.089011598134    -0.011415698894     0.606111904795
H     -0.346498900000    -1.723579400000    -0.185468800000     0.189644583430    -0.469534894603     0.116368137826
H      0.175010500000    -0.068086600000     0.261138900000     0.826815416748     0.066025934144    -0.070705342249
H     -1.462233800000    -0.368514300000     0.019855000000    -0.541320100261    -0.180028656884    -0.229548107492
C     -0.484140100000    -0.666754200000    -0.352145400000    -0.564665718721     0.594953316237    -0.422483703215
5
Properties=species:S:1:pos:R:3:forces:R:3 energy=-1101.538455507206 pbc="F F F"
H     -0.390722200000    -0.431548700000    -1.441772000000    -0.061397948106    -0.039492147525     0.809640446340
H     -0.342818600000    -1.725206500000    -0.183800000000     0.177354709395    -0.418627048184     0.119710572187
H      0.167196100000    -0.058157500000     0.267484600000     0.781615419775    -0.135342880582    -0.242660734600
H     -1.453198300000    -0.360451100000     0.044097400000    -0.575515774877    -0.258910107801    -0.432408162164
C     -0.486272100000    -0.668813900000    -0.354639400000    -0.322313516523     0.852269339958    -0.254487810031
5
Properties=species:S:1:pos:R:3:forces:R:3 energy=-1101.530170184390 pbc="F F F"
H     -0.375921400000    -0.430410800000    -1.437456700000    -0.175349248779    -0.020260294434     0.676714402911
H     -0.336707700000    -1.732412200000    -0.180515900000     0.120379059059    -0.130509206276     0.071836627725
H      0.170159700000    -0.050161200000     0.270415000000     0.592382212882    -0.367924890032    -0.428602929199
H     -1.452022700000    -0.356013100000     0.062306200000    -0.441149913569    -0.335837520168    -0.615367876872
C     -0.488785000000    -0.669896700000    -0.357394800000    -0.096467797862     0.854377644708     0.295265509234
5
Properties=species:S:1:pos:R:3:forces:R:3 energy=-1101.533202621248 pbc="F F F"
H     -0.363515100000    -0.429508800000    -1.424011600000    -0.237569949958     0.039337881324     0.250014090194
H     -0.328940600000    -1.741361100000    -0.176260700000     0.037949485513     0.230113750230    -0.005862115648
H      0.181369400000    -0.047231600000     0.267444000000     0.358874606224    -0.528001784885    -0.529852979300
H     -1.456941100000    -0.356238100000     0.071971300000    -0.234536048000    -0.378003615182    -0.734409962186
C     -0.491416900000    -0.669996500000    -0.359785700000     0.075281906220     0.636450924379     1.019956700740
5
Properties=species:S:1:pos:R:3:forces:R:3 energy=-1101.542049587073 pbc="F F F"
H     -0.354380000000    -0.428043500000    -1.407224400000    -0.253150836286     0.108192029158    -0.307195428799
H     -0.320638900000    -1.747217400000    -0.172088200000    -0.042526049484     0.482698943778    -0.084537878297
H      0.197644200000    -0.051536100000     0.257216100000     0.158225700437    -0.551707357814    -0.492469136526
H     -1.465181200000    -0.361684200000     0.071473500000    -0.058158357879    -0.357949009017    -0.749270939575
C     -0.493965300000    -0.669357500000    -0.360987500000     0.195506699078     0.318559705626     1.633267694928
5
Properties=species:S:1:pos:R:3:forces:R:3 energy=-1101.560114409913 pbc="F F F"
H     -0.348771500000    -0.425117900000    -1.394563600000    -0.253253680421     0.129789297336    -0.713943979484
H     -0.312904200000    -1.746568200000    -0.169072700000    -0.099244589485     0.519619987949    -0.141359262432
H      0.216227800000    -0.063388600000     0.240257700000     0.035892602829    -0.423357878356    -0.313931719587
H     -1.474349600000    -0.372059700000     0.060624200000     0.022522865386    -0.267240482669    -0.643135793101
C     -0.496285800000    -0.668339800000    -0.360311000000     0.294185645825     0.040983387471     1.812422176671
5
Properties=species:S:1:pos:R:3:forces:R:3 energy=-1101.586252306758 pbc="F F F"
H     -0.346733000000    -0.420487500000    -1.391433400000    -0.271405670104     0.057541293074    -0.731273216094
H     -0.306519400000    -1.738920400000    -0.167999500000    -0.121818876937     0.319896679370    -0.166453231172
H      0.235416800000    -0.081024000000     0.219019300000    -0.000102844134    -0.171235483411    -0.036921044171
H     -1.483331400000    -0.386110300000     0.040892000000    -0.004936518441    -0.119761994254    -0.431791097359
C     -0.498259600000    -0.667258800000    -0.357565600000     0.398161065482    -0.086543338913     1.366232900527
5
Properties=species:S:1:pos:R:3:forces:R:3 energy=-1101.601437620729 pbc="F F F"
H     -0.348512600000    -0.415145400000    -1.398101300000    -0.302824553096    -0.092971097300    -0.378672102054
H     -0.301803100000    -1.726997400000    -0.169222100000    -0.112871437264    -0.052141976030    -0.161979511335
H      0.254660300000    -0.100995300000     0.197285400000     0.010541523754     0.132257556557     0.257521711989
H     -1.492455000000    -0.401810800000     0.015180000000    -0.092765409031     0.050702158151    -0.163625017482
C     -0.499765400000    -0.666262100000    -0.353260800000     0.497919875637    -0.038052329647     0.446292120278
5
Properties=species:S:1:pos:R:3:forces:R:3 energy=-1101.589728017095 pbc="F F F"
H     -0.354503100000    -0.411111400000    -1.409929300000    -0.309149467348    -0.250014090194     0.098164726076
H     -0.298652500000    -1.715829200000    -0.172695700000    -0.091994078025    -0.442229776978    -0.143004768579
H      0.274008600000    -0.119170600000     0.179067800000    -0.014243912584     0.386591100386     0.474574257178
H     -1.502838300000    -0.416828700000    -0.012831300000    -0.147169956013     0.199054821707     0.097804771606
C     -0.500689300000    -0.665300200000    -0.348435900000     0.562351725701     0.106546523011    -0.527744674550
5
Properties=species:S:1:pos:R:3:forces:R:3 energy=-1101.563289434434 pbc="F F F"
H     -0.364757500000    -0.410504900000    -1.420529700000    -0.260504191880    -0.345607712915     0.454622495147
H     -0.296812300000    -1.710635900000    -0.178176400000    -0.089628662939    -0.647660935005    -0.127475304317
H      0.293028000000    -0.132088700000     0.167329900000    -0.146244358805     0.509181308330     0.551398825411
H     -1.515141200000    -0.429127100000    -0.039538700000    -0.083817969357     0.289969036323     0.304161526840
C     -0.500956400000    -0.664218600000    -0.344199400000     0.579938072646     0.194066881199    -1.182553276880
5
Properties=species:S:1:pos:R:3:forces:R:3 energy=-1101.544300512925 pbc="F F F"
H     -0.378593100000    -0.414629600000    -1.425052400000    -0.155500330882    -0.347870283867     0.566208380733
H     -0.296272600000    -1.714144400000    -0.185453600000    -0.123310116883    -0.545228177360    -0.120019104589
H      0.309878600000    -0.138050000000     0.163151700000    -0.379289166859     0.485218625066     0.491594961385
H     -1.528467000000    -0.437441800000    -0.062066000000     0.105003860999     0.314343096124     0.443103952119
C     -0.500545600000    -0.662927700000    -0.341308500000     0.553198597759     0.093793850373    -1.380631079312
5
Properties=species:S:1:pos:R:3:forces:R:3 energy=-1101.537667465467 pbc="F F F"
H     -0.394562200000    -0.423517100000    -1.421959800000    -0.012649828504    -0.256493270647     0.409679608510
H     -0.297485400000    -1.724995700000    -0.194403200000    -0.176943332858    -0.196895094889    -0.104746750663
H      0.321400900000    -0.137329400000     0.165762800000    -0.625857978558     0.364068235001     0.350132854819
H     -1.540266700000    -0.441414000000    -0.078451600000     0.341133993078     0.287809309505     0.527024765610
C     -0.499489300000    -0.661545800000    -0.340002500000     0.474162880641    -0.198386334835    -1.182039056209
5
Properties=species:S:1:pos:R:3:forces:R:3 energy=-1101.536251657052 pbc="F F F"
H     -0.410697400000    -0.435914400000    -1.413381100000     0.139302379748    -0.094770869648     0.040880543337
H     -0.301154600000    -1.738542700000    -0.204784900000    -0.212835935687     0.205842534563    -0.060729461234
H      0.324269700000    -0.131538800000     0.173260300000    -0.778632939884     0.217103967256     0.192884173656
H     -1.547359800000    -0.441384300000    -0.087504500000     0.518025903870     0.236232976214     0.569088016490
C     -0.497881400000    -0.660404500000    -0.340063000000     0.333986325753    -0.563842965647    -0.741969006049
5
Properties=species:S:1:pos:R:3:forces:R:3 energy=-1101.539166812837 pbc="F F F"
H     -0.424909900000    -0.449610500000    -1.404304600000     0.266931950267     0.091736967689    -0.387516697594
H     -0.307749600000    -1.749359300000    -0.215974200000    -0.202500100202     0.481773346571     0.019334697226
H      0.316426900000    -0.122670600000     0.183498700000    -0.767525773393     0.100684407363     0.068802725767
H     -1.547357200000    -0.438050400000    -0.088631500000     0.560346265085     0.180594299622     0.572944671522
C     -0.495885700000    -0.659918800000    -0.340993100000     0.142336281706    -0.854531910910    -0.273411130720
5
Properties=species:S:1:pos:R:3:forces:R:3 energy=-1101.553242446486 pbc="F F F"
H     -0.435445300000    -0.462059000000    -1.400452500000     0.342213856487     0.247597253041    -0.643444325503
H     -0.317116700000    -1.753692600000    -0.226859700000    -0.138016828071     0.533658212265     0.127269616049
H      0.298046600000    -0.112322900000     0.194769600000    -0.577058436889     0.043091692222     0.003445278495
H     -1.539691000000    -0.432178300000    -0.081784100000     0.446703496815     0.132154712423     0.534789497741
C     -0.493725000000    -0.660419600000    -0.342266200000    -0.073893510409    -0.956707558218    -0.022008644715
5
Properties=species:S:1:pos:R:3:forces:R:3 energy=-1101.576838527763 pbc="F F F"
H     -0.441262900000    -0.471123200000    -1.405201300000     0.353835243650     0.333832059551    -0.557055252791
H     -0.328364200000    -1.750831300000    -0.235951300000    -0.028950623772     0.347870283867     0.245128993820
H      0.271747500000    -0.101306100000     0.206156500000    -0.248522850248     0.040572010934    -0.005039362575
H     -1.525914200000    -0.424445600000    -0.067501900000     0.210470520601     0.091479857354     0.450097353243
C     -0.491650900000    -0.662021600000    -0.343601900000    -0.287089400566    -0.814011322042    -0.133388842033
5
Properties=species:S:1:pos:R:3:forces:R:3 energy=-1101.592166973624 pbc="F F F"
H     -0.442190000000    -0.475597900000    -1.417399100000     0.310280752824     0.347613173532    -0.175349248779
H     -0.339991000000    -1.743299000000    -0.241623800000     0.101712848705    -0.007147667326     0.350595653423
H      0.242022000000    -0.089701900000     0.217499200000     0.125829798170     0.053787482177     0.007918998332
H     -1.509239400000    -0.415433000000    -0.046974600000    -0.066745843083     0.049056652004     0.315371537466
C     -0.489911600000    -0.664558400000    -0.345120000000    -0.471231822817    -0.443721016924    -0.498691206643
5
Properties=species:S:1:pos:R:3:forces:R:3 energy=-1101.585957879561 pbc="F F F"
H     -0.438814200000    -0.475262200000    -1.431964300000     0.230216594364     0.311823414837     0.283901232407
H     -0.350206000000    -1.735881100000    -0.242429200000     0.220909200221    -0.371935811265     0.418987002653
H      0.213977700000    -0.077398400000     0.228910000000     0.432048207694     0.022111488849    -0.014758133255
H     -1.493424200000    -0.405753300000    -0.022090100000    -0.280404531844    -0.010490101686     0.130097829739
C     -0.488721400000    -0.667604800000    -0.347220100000    -0.602975158703     0.048028210663    -0.818485041879
5
Properties=species:S:1:pos:R:3:forces:R:3 energy=-1101.567790469796 pbc="F F F"
H     -0.432232700000    -0.470587300000    -1.442718100000     0.134417283375     0.252019550810     0.606677547533
H     -0.357380600000    -1.733436700000    -0.237438200000     0.295008398898    -0.537823399699     0.426186092046
H      0.191812300000    -0.064885900000     0.240026200000     0.593873452828    -0.093125363501    -0.110197489775
H     -1.481372300000    -0.396250400000     0.004567700000    -0.356714879407    -0.095490778587    -0.096262109593
C     -0.488233700000    -0.670601100000    -0.350251600000    -0.666841366029     0.474162880641    -0.826609728479
5
Properties=species:S:1:pos:R:3:forces:R:3 energy=-1101.554357024857 pbc="F F F"
H     -0.423763800000    -0.462386700000    -1.445274300000     0.042526049484     0.188564720021     0.675840227770
H     -0.360497400000    -1.738143000000    -0.226570500000     0.307195428799    -0.385614081112     0.355532171864
H      0.177793500000    -0.053752300000     0.249533300000     0.610637046699    -0.270377228762    -0.259835705008
H     -1.474155900000    -0.388102900000     0.029861200000    -0.298196567058    -0.195095322541    -0.335580409832
C     -0.488523600000    -0.673063700000    -0.354215700000    -0.662470490327     0.662367646192    -0.436213395129
5
Properties=species:S:1:pos:R:3:forces:R:3 energy=-1101.547736222524 pbc="F F F"
H     -0.414676200000    -0.451533100000    -1.438690900000    -0.029773376845     0.135651412985     0.468917829798
H     -0.359373400000    -1.747969800000    -0.210811200000     0.267034794401     0.001079863409     0.210521942668
H      0.172219600000    -0.046396900000     0.255412700000     0.535766517016    -0.440275738429    -0.399960837830
H     -1.471038100000    -0.382670200000     0.050493700000    -0.173395210229    -0.279118980167    -0.541988587134
C     -0.489586900000    -0.674774000000    -0.358662400000    -0.599735568476     0.582406331867     0.262098275960
5
Properties=species:S:1:pos:R:3:forces:R:3 energy=-1101.542870554589 pbc="F F F"
H     -0.405973200000    -0.438760400000    -1.425781400000    -0.074510575214     0.097084862667     0.059443909557
H     -0.354541600000    -1.757762200000    -0.192157800000     0.199003399640     0.406285752082     0.019591807561
H      0.174114800000    -0.045114800000     0.255778500000     0.430865500151    -0.532064128185    -0.465935349907
H     -1.470370900000    -0.381091200000     0.063631200000    -0.066642998949    -0.315988602271    -0.667818385304
C     -0.491351000000    -0.675814700000    -0.362791300000    -0.488869591829     0.344527849506     1.054306641556
5
Properties=species:S:1:pos:R:3:forces:R:3 energy=-1101.542651775045 pbc="F F F"
H     -0.398287300000    -0.424631800000    -1.412065900000    -0.097290550935     0.052913307036    -0.370033194783
H     -0.346926800000    -1.762071500000    -0.173232800000     0.127423882250     0.638096430526    -0.174012275034
H      0.182060200000    -0.051145000000     0.249747300000     0.338151513187    -0.506044562237    -0.423717832826
H     -1.470727700000    -0.383861600000     0.067548400000    -0.036921044171    -0.287706465371    -0.681188122748
C     -0.493685600000    -0.676450500000    -0.365699400000    -0.331672332734     0.102844134181     1.648642892988
5
Properties=species:S:1:pos:R:3:forces:R:3 energy=-1101.554992138607 pbc="F F F"
H     -0.391959900000    -0.409818100000    -1.403278700000    -0.116573826094    -0.037743797244    -0.586931473771
H     -0.337511300000    -1.757761000000    -0.156699600000     0.069162680237     0.600969698086    -0.329306917647
H      0.194775400000    -0.064121900000     0.237903900000     0.273154020385    -0.360880066841    -0.278399071228
H     -1.471713800000    -0.390585600000     0.062063800000    -0.102124225242    -0.195352432877    -0.577109858956
C     -0.496405300000    -0.676952200000    -0.366715300000    -0.123721493420    -0.006941979057     1.771798743670
5
Properties=species:S:1:pos:R:3:forces:R:3 energy=-1101.574685562901 pbc="F F F"
H     -0.387280900000    -0.395615200000    -1.402318100000    -0.147427066348    -0.195763809413    -0.477299626734
H     -0.327103100000    -1.745352700000    -0.144704300000     0.031881681596     0.293979957556    -0.420118288129
H      0.211335400000    -0.082054500000     0.222233800000     0.223943102179    -0.131949024154    -0.071785205658
H     -1.474206700000    -0.399994300000     0.048603000000    -0.230216594364    -0.060626617100    -0.382837289489
C     -0.499266700000    -0.677441200000    -0.365701700000     0.121613188669     0.094102382776     1.351886143809
5
Properties=species:S:1:pos:R:3:forces:R:3 energy=-1101.582862040173 pbc="F F F"
H     -0.384673800000    -0.384191600000    -1.407779300000    -0.182805448507    -0.385151282508    -0.146450047074
H     -0.316226600000    -1.729033000000    -0.138511900000     0.012289874035    -0.184708064989    -0.442692575582
H      0.231007400000    -0.101813200000     0.205553700000     0.153186337863     0.115699650954     0.130972004879
H     -1.479900700000    -0.410250600000     0.029821100000    -0.337842980784     0.075333328288    -0.154986110211
C     -0.501986100000    -0.677800900000    -0.363129900000     0.355017951193     0.378569257920     0.613156727987
5
Properties=species:S:1:pos:R:3:forces:R:3 energy=-1101.572572870890 pbc="F F F"
H     -0.384606200000    -0.378113900000    -1.415286100000    -0.200906016123    -0.534275277070     0.192267108851
H     -0.305183400000    -1.715263900000    -0.138469200000    -0.012958360907    -0.629148990852    -0.422843657685
H      0.252750100000    -0.120015200000     0.190630300000     0.019334697226     0.310229330757     0.269091677084
H     -1.490183300000    -0.419502900000     0.008832100000    -0.324627509542     0.167841626983     0.042988848088
C     -0.504295000000    -0.677712700000    -0.359832100000     0.519002923144     0.685301888115    -0.081915352875
5
Properties=species:S:1:pos:R:3:forces:R:3 energy=-1101.559027587155 pbc="F F F"
H     -0.387312700000    -0.379404300000    -1.420285600000    -0.186147882868    -0.586417253100     0.376255264901
H     -0.294369700000    -1.709976100000    -0.144343200000    -0.078881450917    -0.796630663366    -0.397595422744
H      0.274675500000    -0.133986900000     0.179369500000    -0.187741966947     0.407879836162     0.317736952552
H     -1.504812500000    -0.426486600000    -0.011629300000    -0.144496008524     0.192112842650     0.178023196267
C     -0.506002100000    -0.676839400000    -0.356600100000     0.597164465122     0.782952393520    -0.474368568910
5
Properties=species:S:1:pos:R:3:forces:R:3 energy=-1101.554995403974 pbc="F F F"
H     -0.392585600000    -0.388770200000    -1.420272000000    -0.137039808796    -0.522088247170     0.343088031628
H     -0.284725300000    -1.715393400000    -0.155792000000    -0.197923536231    -0.587497116509    -0.375792466297
H      0.293933900000    -0.142359100000     0.172472400000    -0.425569027241     0.409988140912     0.293311470684
H     -1.521333100000    -0.430846800000    -0.029664800000     0.146141514671     0.159665518316     0.256493270647
C     -0.507012700000    -0.675079400000    -0.353891300000     0.614339435530     0.539880282383    -0.517100306662
5
Properties=species:S:1:pos:R:3:forces:R:3 energy=-1101.555252007344 pbc="F F F"
H     -0.399747400000    -0.405327900000    -1.415683300000    -0.062940610119    -0.357331944212     0.115236852350
H     -0.277874100000    -1.728752100000    -0.172470800000    -0.334037747820    -0.136371321924    -0.325553106750
H      0.307282400000    -0.145058300000     0.169643400000    -0.620150129111     0.352498269905     0.234278937664
H     -1.535820000000    -0.432998700000    -0.044142200000     0.425826137576     0.103255510718     0.304984279914
C     -0.507304600000    -0.672710300000    -0.351767900000     0.591096661205     0.037846641379    -0.328895541111
5
Properties=species:S:1:pos:R:3:forces:R:3 energy=-1101.553089790610 pbc="F F F"
H     -0.407781400000    -0.426820800000    -1.409592700000     0.018717632421    -0.134263017173    -0.205379735959
H     -0.275650000000    -1.744026300000    -0.193634200000    -0.427831598193     0.313520343051    -0.212835935687
H      0.312075700000    -0.142838400000     0.170098600000    -0.703813832267     0.278861869832     0.176634800456
H     -1.544488800000    -0.433695200000    -0.054360300000     0.582663442202     0.054507391116     0.342625233024
C     -0.506905000000    -0.670301100000    -0.350027500000     0.529955823434    -0.512472320624    -0.100992939766
5
Properties=species:S:1:pos:R:3:forces:R:3 energy=-1101.553777694449 pbc="F F F"
H     -0.415570800000    -0.450190200000    -1.406289600000     0.085669163773     0.092302610427    -0.449891664975
H     -0.279319200000    -1.755131900000    -0.217701100000    -0.438938764684     0.577264125158    -0.034658473219
H      0.307182800000    -0.136692900000     0.173056200000    -0.642313040027     0.221217732623     0.142644814109
H     -1.545210100000    -0.433598000000    -0.059786500000     0.559163557542     0.031727415395     0.374301226352
C     -0.505885300000    -0.668480600000    -0.348421500000     0.436059128927    -0.921689130530    -0.032190213999
5
Properties=species:S:1:pos:R:3:forces:R:3 energy=-1101.563157459212 pbc="F F F"
H     -0.422197400000    -0.472317900000    -1.409014900000     0.121253234199     0.278964713966    -0.466089616108
H     -0.289026800000    -1.758465000000    -0.242205900000    -0.358103275218     0.575207242474     0.183833889848
H      0.293453200000    -0.127417800000     0.178044600000    -0.446035009943     0.189284628960     0.136114211589
H     -1.538306100000    -0.433021900000    -0.059985600000     0.361548553713     0.038000907580     0.393173124974
C     -0.504354800000    -0.667719500000    -0.346881900000     0.321233653114    -1.081508915047    -0.247031610303
5
Properties=species:S:1:pos:R:3:forces:R:3 energy=-1101.573230570090 pbc="F F F"
H     -0.427165800000    -0.490600200000    -1.417972500000     0.123258694816     0.414101906280    -0.235461645207
H     -0.303658400000    -1.754047600000    -0.264134100000    -0.200597483720     0.313160388581     0.404126025264
H      0.273568800000    -0.115480200000     0.184953300000    -0.172212502686     0.166144698769     0.140279399023
H     -1.526461400000    -0.431892600000    -0.054710600000     0.060986571569     0.061706480509     0.384431373568
C     -0.502448000000    -0.668202400000    -0.345656200000     0.188410453820    -0.955216318273    -0.693426574715
5
Properties=species:S:1:pos:R:3:forces:R:3 energy=-1101.570454464488 pbc="F F F"
H     -0.430434900000    -0.503139900000    -1.430092000000     0.102741290047     0.500285290723     0.111071664915
H     -0.321049800000    -1.745445100000    -0.280447500000    -0.002211148885    -0.116419559893     0.586571519301
H      0.251259300000    -0.101250600000     0.193799100000     0.090811370482     0.112974281398     0.120636169394
H     -1.513737900000    -0.429907100000    -0.044108100000    -0.217926720329     0.078778606783     0.327558567366
C     -0.500322400000    -0.669783700000    -0.345246700000     0.026533786619    -0.575824307279    -1.146146453380
5
Properties=species:S:1:pos:R:3:forces:R:3 energy=-1101.556712986659 pbc="F F F"
H     -0.432274500000    -0.508728600000    -1.440721700000     0.073996354543     0.538389042437     0.404383135600
H     -0.338486200000    -1.738443300000    -0.288627800000     0.183988156050    -0.516791774259     0.699185846229
H      0.230115200000    -0.085516100000     0.204269600000     0.265852086858    -0.004679408105     0.046794081052
H     -1.503892800000    -0.426858100000    -0.028993800000    -0.350441387222     0.062837765985     0.206408177301
C     -0.498169600000    -0.672030300000    -0.346161000000    -0.173703742632    -0.080012736393    -1.356822662249
5
Properties=species:S:1:pos:R:3:forces:R:3 energy=-1101.548648620297 pbc="F F F"
H     -0.433074900000    -0.506835100000    -1.445885800000     0.047719678260     0.526870499409     0.530470044105
H     -0.353418700000    -1.738357500000    -0.287123600000     0.309303733549    -0.646683915730     0.720217471669
H      0.212563700000    -0.069921700000     0.215331900000     0.330798157593    -0.183319669178    -0.079498515722
H     -1.498727800000    -0.422978200000    -0.011060100000    -0.292231607275     0.005245050843     0.025453923210
C     -0.496223400000    -0.674382800000    -0.348634400000    -0.396052760731     0.297322391917    -1.196900033598
5
Properties=species:S:1:pos:R:3:forces:R:3 energy=-1101.553921642681 pbc="F F F"
H     -0.433195700000    -0.497618000000    -1.443866500000     0.030801818187     0.468712141530     0.447731938157
H     -0.364111100000    -1.746875100000    -0.275654100000     0.357486210413    -0.398983818555     0.637787898123
H      0.199556200000    -0.056908100000     0.225265000000     0.320102367638    -0.372707142272    -0.218749473403
H     -1.497506500000    -0.419050700000     0.007200300000    -0.108500561561    -0.075230484153    -0.180131501018
C     -0.494741200000    -0.676415500000    -0.352481000000    -0.599992678812     0.377952193115    -0.686793128060
5
Properties=species:S:1:pos:R:3:forces:R:3 energy=-1101.562415948942 pbc="F F F"
H     -0.432872200000    -0.481878200000    -1.435789900000     0.024939702539     0.374352648419     0.185222285660
H     -0.369865900000    -1.760696100000    -0.255373800000     0.347407485263     0.088651643664     0.453594053805
H      0.191008700000    -0.049049700000     0.232182500000     0.288426374311    -0.507484380116    -0.318096907022
H     -1.497798800000    -0.416162900000     0.022970300000     0.081863930808    -0.144958807128    -0.358051853151
C     -0.493958700000    -0.678030700000    -0.357114200000    -0.742894603256     0.189233206893     0.037126732439
5
Properties=species:S:1:pos:R:3:forces:R:3 energy=-1101.564550954290 pbc="F F F"
H     -0.432188100000    -0.460929400000    -1.425204600000     0.027665072095     0.250631154999    -0.146810001543
H     -0.370789100000    -1.773304500000    -0.228827100000     0.308480980476     0.555512590778     0.196792250755
H      0.186524900000    -0.048179200000     0.234736700000     0.275982234075    -0.541062989926    -0.339951285535
H     -1.497053700000    -0.415256800000     0.033811400000     0.180954254091    -0.174423651571    -0.462490071412
C     -0.494040900000    -0.679432100000    -0.361704300000    -0.793493917273    -0.090605682213     0.752201997400
5
Properties=species:S:1:pos:R:3:forces:R:3 energy=-1101.565524577682 pbc="F F F"
H     -0.431114000000    -0.436512200000    -1.416555700000     0.031367460925     0.090554260146    -0.376872329706
H     -0.367401200000    -1.778400600000    -0.199550300000     0.261686899423     0.797144884037    -0.081915352875
H      0.185945400000    -0.054751300000     0.232631800000     0.295831151972    -0.460021812191    -0.275262325135
H     -1.493934700000    -0.416729200000     0.038292000000     0.143621833384    -0.149483949032    -0.467529433987
C     -0.495045400000    -0.680930800000    -0.365435900000    -0.732713033972    -0.278244805027     1.201322331368
5
Properties=species:S:1:pos:R:3:forces:R:3 energy=-1101.571571763998 pbc="F F F"
H     -0.429607200000    -0.410884400000    -1.412907300000     0.029053467906    -0.117293735033    -0.375843888364
H     -0.360342900000    -1.772703500000    -0.171380800000     0.219058005805     0.723251373628    -0.327147190830
H      0.189528500000    -0.067655100000     0.226747300000     0.331620910667    -0.285135362017    -0.146758579476
H     -1.488955700000    -0.420234500000     0.036340300000    -0.021494424044    -0.073122179403    -0.374609758754
C     -0.496900500000    -0.682735200000    -0.367797200000    -0.558289382401    -0.247905785443     1.224359417424
5
Properties=species:S:1:pos:R:3:forces:R:3 energy=-1101.575038222464 pbc="F F F"
H     -0.427701200000    -0.386941300000    -1.414274700000     0.019951762031    -0.358103275218    -0.167533094581
H     -0.350205500000    -1.757238000000    -0.147702400000     0.186250727002     0.343036609561    -0.496068681222
H      0.197727500000    -0.084500000000     0.218824500000     0.342573810957    -0.066437310681    -0.003753810898
H     -1.484353200000    -0.424728900000     0.029221200000    -0.248625694382     0.032293058133    -0.214687130103
C     -0.499404000000    -0.684804800000    -0.368755100000    -0.300304871808     0.048902385803     0.881888450602
5
Properties=species:S:1:pos:R:3:forces:R:3 energy=-1101.564262241484 pbc="F F F"
H     -0.425518000000    -0.367990300000    -1.417921800000     0.009513082412    -0.579166741640     0.098164726076
H     -0.337450200000    -1.737194100000    -0.130862500000     0.160231161054    -0.224868699387    -0.573458892193
H      0.210637200000    -0.102299000000     0.210800600000     0.279993155308     0.132360400691     0.098473258478
H     -1.483173100000    -0.428783100000     0.019107800000    -0.423460722490     0.126086908506    -0.043863023228
C     -0.502259100000    -0.686796700000    -0.368687300000    -0.026379520417     0.545331021495     0.420529664666
5
Properties=species:S:1:pos:R:3:forces:R:3 energy=-1101.545227332733 pbc="F F F"
H     -0.423195200000    -0.357054300000    -1.420311200000     0.004268031569    -0.718880497925     0.266880528200
H     -0.322468100000    -1.720234900000    -0.121978000000     0.117910799838    -0.734409962186    -0.586982895838
H      0.227351100000    -0.118326000000     0.204070400000     0.120121948723     0.262406808363     0.128812278062
H     -1.487726900000    -0.431135800000     0.008322700000    -0.432665272499     0.165064835360     0.079961314326
C     -0.505151100000    -0.688148300000    -0.368109600000     0.190210226168     1.025870238455     0.111020242848
5
Properties=species:S:1:pos:R:3:forces:R:3 energy=-1101.537361065260 pbc="F F F"
H     -0.420803400000    -0.356045200000    -1.419174700000     0.006479180453    -0.738112351017     0.257058913385
H     -0.305901900000    -1.713158700000    -0.121302300000     0.019591807561    -0.906365354537    -0.589656843327
H      0.245661700000    -0.130773400000     0.199071400000    -0.110351755976     0.311309194166     0.096982018533
H     -1.498103700000    -0.431265300000    -0.001428300000    -0.244254818680     0.130869160745     0.131434803483
C     -0.507827300000    -0.688323600000    -0.367371000000     0.328227054239     1.202247928575     0.103821153456
5
Properties=species:S:1:pos:R:3:forces:R:3 energy=-1101.546230888649 pbc="F F F"
H     -0.418314900000    -0.365227500000    -1.414647000000     0.013678269846    -0.633879821024     0.070705342249
H     -0.289148100000    -1.718258900000    -0.128895600000    -0.150203857971    -0.647352402602    -0.598758549202
H      0.262421600000    -0.138930700000     0.195402900000    -0.344373583305     0.300253449741     0.040726277136
H     -1.511763900000    -0.429623900000    -0.009403400000     0.060163818496     0.044377243899     0.127475304317
C     -0.510121700000    -0.687129500000    -0.366483900000     0.420683930867     0.936344419651     0.359697359298
5
Properties=species:S:1:pos:R:3:forces:R:3 energy=-1101.558305941197 pbc="F F F"
H     -0.415637400000    -0.383182500000    -1.409240100000     0.018717632421    -0.440995647368    -0.208053683448
H     -0.274533700000    -1.732128700000    -0.144829800000    -0.349567212081    -0.137348341199    -0.569396548893
H      0.274440900000    -0.142912200000     0.192323500000    -0.508358555256     0.264309424845    -0.000359954470
H     -1.524607500000    -0.427370800000    -0.015616700000     0.343756518500    -0.051679177426     0.103255510718
C     -0.511922900000    -0.684864400000    -0.365167700000     0.495245928148     0.365508052879     0.674503254026
5
Properties=species:S:1:pos:R:3:forces:R:3 energy=-1101.566066628491 pbc="F F F"
H     -0.412712400000    -0.407279800000    -1.406676400000     0.010850056156    -0.218389518933    -0.425980403778
H     -0.264764600000    -1.747957900000    -0.168630400000    -0.507073003579     0.347253219062    -0.449943087042
H      0.279483300000    -0.143183600000     0.189286100000    -0.551450247478     0.235204534872    -0.001336973744
H     -1.532796900000    -0.425807900000    -0.020373200000     0.492983357196    -0.119916260455     0.088034578859
C     -0.513143100000    -0.682172800000    -0.363078100000     0.554381305302    -0.244769039351     0.789020197436
5
Properties=species:S:1:pos:R:3:forces:R:3 energy=-1101.575311969007 pbc="F F F"
H     -0.409664100000    -0.434456300000    -1.409829300000    -0.021648690245    -0.011518543028    -0.435904862726
H     -0.261985100000    -1.759179400000    -0.198616600000    -0.569447970960     0.617167649220    -0.232427743249
H      0.276962100000    -0.140132700000     0.186283500000    -0.459610435655     0.229548107492     0.042988848088
H     -1.534300400000    -0.425866500000    -0.023868300000     0.456782221965    -0.139765178352     0.096004999258
C     -0.513713100000    -0.679752800000    -0.360097900000     0.593719186627    -0.693837951252     0.529081648294
5
Properties=species:S:1:pos:R:3:forces:R:3 energy=-1101.585772570023 pbc="F F F"
H     -0.406932900000    -0.461840700000    -1.418809600000    -0.073790666275     0.166658919440    -0.214224331499
H     -0.267059900000    -1.762088900000    -0.231778300000    -0.521265494096     0.601741029093     0.051987709828
H      0.268131400000    -0.133844800000     0.183918600000    -0.262046853893     0.240963806386     0.115853917155
H     -1.529615600000    -0.427831500000    -0.025992900000     0.247648675108    -0.112665748995     0.124698512694
C     -0.513587100000    -0.678124900000    -0.356530400000     0.609454339156    -0.896286629387    -0.078315808179
5
Properties=species:S:1:pos:R:3:forces:R:3 energy=-1101.584740714265 pbc="F F F"
H     -0.405241400000    -0.486908100000    -1.430664100000    -0.131640491752     0.332649352008     0.114774053746
H     -0.279315000000    -1.756893200000    -0.264192800000    -0.370084616850     0.312286213440     0.352601114039
H      0.255669900000    -0.124199900000     0.183165700000    -0.031984525730     0.236695774817     0.179360170012
H     -1.521568900000    -0.431336600000    -0.026368000000    -0.049725138876    -0.053633215975     0.155397486747
C     -0.512748300000    -0.677524800000    -0.353066700000     0.583434773209    -0.828152390492    -0.802441356947
5
Properties=species:S:1:pos:R:3:forces:R:3 energy=-1101.565435324336 pbc="F F F"
H     -0.405373300000    -0.507327400000    -1.440984400000    -0.172263924753     0.488252527024     0.384328529434
H     -0.296674500000    -1.747531700000    -0.291712500000    -0.153700558533    -0.151232299313     0.616550584415
H      0.242692100000    -0.111311300000     0.184862800000     0.140845041761     0.172366768887     0.190518758570
H     -1.514163400000    -0.435591900000    -0.024598100000    -0.299327852534     0.006427758386     0.158842765242
C     -0.511230400000    -0.677874500000    -0.350529000000     0.484241605791    -0.515763332918    -1.350137793528
5
Properties=species:S:1:pos:R:3:forces:R:3 energy=-1101.540109959477 pbc="F F F"
H     -0.407881400000    -0.520940300000    -1.446122100000    -0.181674163031     0.614596545865     0.486144222273
H     -0.316183400000    -1.740249700000    -0.310695100000     0.065100336937    -0.579115319573     0.799870253592
H      0.231555800000    -0.096110600000     0.189139400000     0.201985879531     0.024271215667     0.128606589793
H     -1.510742900000    -0.439794100000    -0.020661100000    -0.375329667693     0.037743797244     0.111534463519
C     -0.509152400000    -0.678819800000    -0.349542300000     0.289660503921    -0.097753349539    -1.526309795380
5
Properties=species:S:1:pos:R:3:forces:R:3 energy=-1101.529078191469 pbc="F F F"
H     -0.412893100000    -0.526011600000    -1.444680500000    -0.156220239821     0.685147621914     0.392967436705
H     -0.334852800000    -1.740731300000    -0.318597700000     0.224817277320    -0.715538063564     0.879163081046
H      0.223130800000    -0.080638000000     0.195156200000     0.163162218878    -0.179874390683     0.015529464261
H     -1.512336300000    -0.443509000000    -0.015220900000    -0.248831382651     0.033115811206     0.015529464261
C     -0.506741500000    -0.679894400000    -0.350311400000     0.016815015939     0.176789066657    -1.303549400744
5
Properties=species:S:1:pos:R:3:forces:R:3 energy=-1101.537886789238 pbc="F F F"
H     -0.420058800000    -0.521574300000    -1.437918800000    -0.102021381108     0.682062297888     0.144033209920
H     -0.350470400000    -1.750752000000    -0.314322600000     0.304058682706    -0.450611573914     0.842447725143
H      0.216945500000    -0.067672500000     0.201390400000     0.085206365169    -0.373838427748    -0.098627524680
H     -1.517278100000    -0.446781000000    -0.009582000000    -0.006736290789     0.009153127942    -0.095336512386
C     -0.504313400000    -0.680793300000    -0.352585300000    -0.280867330448     0.132977465496    -0.792722586267
5
Properties=species:S:1:pos:R:3:forces:R:3 energy=-1101.161707064853 pbc="F F F"
H     -0.072099100000     0.605654600000    -0.138003000000    -0.543479827079     2.967773180060    -0.176891910791
H      0.728815000000    -0.692005300000    -0.557136700000    -0.543017028475    -0.939892542280     0.938761256804
H     -0.835062700000    -0.761166400000     0.531921500000     0.326530126025    -0.551450247478    -0.537257756961
H     -0.756889100000    -0.635054900000    -1.347265000000    -0.686587439792     0.801927136276     0.624829537216
C     -0.327132200000    -0.369104100000    -0.363525100000     1.446554169322    -2.278666058980    -0.849646814536
5
Properties=species:S:1:pos:R:3:forces:R:3 energy=-1101.227684335635 pbc="F F F"
H     -0.154199700000     0.633540000000    -0.138197000000    -0.091994078025     2.459054670334    -0.286832290231
H      0.649572500000    -0.751576300000    -0.590759600000     1.368701159747    -0.862348065107     1.011832014139
H     -0.825449900000    -0.752706000000     0.488628100000    -0.404691668002    -1.184404471295     0.670286644524
H     -0.734949000000    -0.633344400000    -1.339840500000    -1.134627910351     0.786140561679     0.375021135291
C     -0.316497700000    -0.367587900000    -0.357866700000     0.262766762832    -1.198134163208    -1.770256081657
5
Properties=species:S:1:pos:R:3:forces:R:3 energy=-1101.185740977331 pbc="F F F"
H     -0.237617200000     0.693960700000    -0.142616400000     0.317171309814     0.400886435037    -0.563431589110
H      0.588901800000    -0.823237900000    -0.610445800000     2.747840999114    -0.762537832885     0.904719848390
H     -0.821346000000    -0.760491400000     0.454277800000    -0.985761026125    -1.517876576377     1.487434712659
H     -0.728763200000    -0.620738500000    -1.327282500000    -1.464603314871     0.674143299556     0.028796357571
C     -0.305526400000    -0.367339000000    -0.354206200000    -0.614596545865     1.205796051205    -1.857673595711
5
Properties=species:S:1:pos:R:3:forces:R:3 energy=-1101.126082462497 pbc="F F F"
H     -0.316414600000     0.760324200000    -0.154655700000     0.859417007283    -1.456530050338    -0.630743074932
H      0.564687700000    -0.904875600000    -0.617260600000     2.492736124278    -0.096519219929     0.941846580829
H     -0.830206800000    -0.788715500000     0.439442600000    -0.882248405071    -1.177462492238     1.235260895648
H     -0.742727100000    -0.598734400000    -1.314159100000    -1.488925952605     0.523065266444    -0.181828429232
C     -0.295223800000    -0.365823700000    -0.352673200000    -0.981081618019     2.207909294664    -1.364844504716
5
Properties=species:S:1:pos:R:3:forces:R:3 energy=-1101.051882182972 pbc="F F F"
H     -0.383238800000     0.807380000000    -0.175229900000     1.356359863646    -2.411077881738    -0.445983587876
H      0.574130600000    -0.987223900000    -0.610788400000     1.179416530787     1.083874330133     1.052095492671
H     -0.850724000000    -0.832804000000     0.441054900000    -0.201368814726    -0.316759933277     0.270788605298
H     -0.777086000000    -0.569440600000    -1.303242700000    -1.130154190515     0.341339681347    -0.113077125532
C     -0.286061500000    -0.361906500000    -0.352735500000    -1.203893434722     1.302880913872    -0.764029072830
5
Properties=species:S:1:pos:R:3:forces:R:3 energy=-1100.906305893677 pbc="F F F"
H     -0.431246100000     0.821578000000    -0.201888100000     1.702841751701    -2.575577074361    -0.118219332241
H      0.600241200000    -1.054582300000    -0.589826000000    -0.053787482177     2.127999402405     0.969665919125
H     -0.874067600000    -0.881326700000     0.446639000000     0.494268908874     0.560860485756    -0.573870268730
H     -0.826942700000    -0.535432400000    -1.293675700000    -0.491749227586     0.103615465187     0.149175416629
C     -0.278340300000    -0.356511700000    -0.353723900000    -1.651779639080    -0.216538324518    -0.426803156851
5
Properties=species:S:1:pos:R:3:forces:R:3 energy=-1100.782543611989 pbc="F F F"
H     -0.455612500000     0.800492800000    -0.230126700000     1.868575073934    -2.048089510147     0.277679162289
H      0.626176600000    -1.092700500000    -0.555534100000    -0.805423836838     2.704235086221     0.676611558777
H     -0.890845300000    -0.922333900000     0.444742600000     0.895618142515     1.158282061213    -0.955730538944
H     -0.883617400000    -0.500042200000    -1.282062700000     0.209853455796    -0.192832751589     0.377643660712
C     -0.272568800000    -0.351356200000    -0.355242900000    -2.168519991273    -1.621492041564    -0.376563797304
5
Properties=species:S:1:pos:R:3:forces:R:3 energy=-1100.777938357018 pbc="F F F"
H     -0.454075700000     0.751654500000    -0.254443200000     1.806354372754    -0.717903478650     0.702579702657
H      0.641387300000    -1.093519300000    -0.511903100000    -1.073589916715     2.785019153620     0.263435249705
H     -0.895463400000    -0.947509600000     0.429966300000     0.967403348173     1.420431759240    -0.899989018218
H     -0.937509800000    -0.467366700000    -1.265403400000     0.781975374245    -0.500028180388     0.404743090069
C     -0.269326900000    -0.348104000000    -0.357218200000    -2.481886068122    -2.987467831756    -0.470871868348
5
Properties=species:S:1:pos:R:3:forces:R:3 energy=-1100.858779575303 pbc="F F F"
H     -0.427533600000     0.693729800000    -0.268940000000     1.506666565751     1.388858610047     1.106962838257
H      0.642157600000    -1.055946100000    -0.464646100000    -0.818485041879     2.334253313505    -0.204505560819
H     -0.886893700000    -0.953189100000     0.403033400000     0.725873899049     1.338259296030    -0.453439787604
H     -0.980709600000    -0.441611200000    -1.243346900000     1.134627910351    -0.737032487608     0.203014320873
C     -0.268977700000    -0.348369300000    -0.359755200000    -2.548477645004    -4.323978777504    -0.651980388640
5
Properties=species:S:1:pos:R:3:forces:R:3 energy=-1100.958943598803 pbc="F F F"
H     -0.379945200000     0.654896100000    -0.268094400000     1.160956008702     3.109389552827     1.366849965332
H      0.632266600000    -0.986411200000    -0.420244900000     0.122590207944     1.267193999311    -0.662881866863
H     -0.868531900000    -0.940575900000     0.370221300000     0.165373367763     0.871449770982     0.396875513804
H     -1.008278400000    -0.426016000000    -1.218647800000     1.263851564950    -0.836431343294    -0.172623879223
C     -0.271635700000    -0.353604900000    -0.363069000000    -2.712102662486    -4.411344869491    -0.928579687520
5
Properties=species:S:1:pos:R:3:forces:R:3 energy=-1101.077174622054 pbc="F F F"
H     -0.316013100000     0.656776000000    -0.248530300000     0.853297781299     2.557887883282     1.268068174451
H      0.624833000000    -0.899633200000    -0.384972500000     1.637484304429    -0.187690544880    -0.992394472779
H     -0.848135600000    -0.916167000000     0.343352200000    -0.615933519610     0.075641860690     1.554077711609
H     -1.018400700000    -0.421948700000    -1.196501000000     1.173965791676    -0.778067297146    -0.665452970218
C     -0.277508600000    -0.363730400000    -0.367472800000    -3.049122890197    -1.667669057811    -1.164606975465
5
Properties=species:S:1:pos:R:3:forces:R:3 energy=-1101.160667589906 pbc="F F F"
H     -0.240497400000     0.692507300000    -0.211706400000     0.260504191880     0.383351510160     0.758321223383
H      0.639583900000    -0.814864600000    -0.363328700000     2.477258082084    -1.128868638837    -1.101820631548
H     -0.836094000000    -0.890582900000     0.337959500000    -1.147843381594    -0.604260710380     2.434526344332
H     -1.012350700000    -0.428632200000    -1.183741300000     0.857514390801    -0.596393134115    -1.210424037243
C     -0.286874100000    -0.375725800000    -0.373197300000    -2.447947503842     1.946222395241    -0.881322807864
5
Properties=species:S:1:pos:R:3:forces:R:3 energy=-1101.222661385889 pbc="F F F"
H     -0.161615100000     0.734240800000    -0.164436000000    -0.563174478775    -1.355228578170     0.094822291715
H      0.686568400000    -0.744725700000    -0.356943500000     1.362221979294    -1.133599469010    -1.060785822010
H     -0.839101000000    -0.872598700000     0.365239800000    -0.847127133249    -0.590171063997     2.145997125887
H     -0.994443700000    -0.443608200000    -1.187790000000     0.424386319698    -0.363451170196    -1.621440619497
C     -0.298961700000    -0.385661800000    -0.379850600000    -0.376203842834     3.442244593104     0.441355601838
5
Properties=species:S:1:pos:R:3:forces:R:3 energy=-1101.179705219797 pbc="F F F"
H     -0.090490800000     0.758181200000    -0.115731500000    -1.289922552965    -2.104550939812    -0.486041378139
H      0.751618300000    -0.690266600000    -0.365308900000    -0.627143530236    -0.933876160430    -0.926265694501
H     -0.853253000000    -0.862257800000     0.421224900000     0.045508529375    -0.064483272131     0.749939426448
H     -0.970363000000    -0.463689500000    -1.213979600000     0.184553798788    -0.140022288687    -1.549552569705
C     -0.311497100000    -0.391716000000    -0.385936800000     1.687363709507     3.242778394860     2.212023060031
5
Properties=species:S:1:pos:R:3:forces:R:3 energy=-1100.996493406720 pbc="F F F"
H     -0.037150000000     0.753455100000    -0.073639100000    -1.779254943398    -2.147025567229    -0.901377414029
H      0.808662100000    -0.649157800000    -0.386535400000    -2.022429898669    -0.944109151781    -0.699442956565
H     -0.866960900000    -0.852968100000     0.487610300000     0.802235668679     0.359800203432    -0.765931689313
H     -0.943245300000    -0.485741400000    -1.261049200000     0.310023642489     0.075281906220    -0.798944656385
C     -0.322158600000    -0.393987600000    -0.389507400000     2.689528375033     2.656052609358     3.165593872157
5
Properties=species:S:1:pos:R:3:forces:R:3 energy=-1100.833309445870 pbc="F F F"
H     -0.008419000000     0.719246400000    -0.043950800000    -2.000678364289    -1.669468830160    -1.125063405873
H      0.838394600000    -0.621415000000    -0.417491800000    -2.559533389429    -1.081200382644    -0.416004522762
H     -0.869944000000    -0.839046300000     0.543888600000     1.133959423479     0.446137854077    -1.774678379427
H     -0.911641000000    -0.506732100000    -1.318858500000     0.558237960334     0.292951516214     0.328587008708
C     -0.329736700000    -0.393138600000    -0.389468300000     2.868528590575     2.011528420445     2.986902189018
5
Properties=species:S:1:pos:R:3:forces:R:3 energy=-1100.820871937660 pbc="F F F"
H     -0.007326000000     0.662352000000    -0.029728400000    -1.889863809709    -0.582406331867    -1.094415853887
H      0.833062100000    -0.608822000000    -0.454251500000    -2.414780270569    -1.229707312402    -0.112717171062
H     -0.857485100000    -0.819220600000     0.576029500000     1.085057037676     0.234638892134    -2.167337283730
H     -0.872461300000    -0.523653300000    -1.372239300000     0.609608605358     0.481927612772     1.320672949085
C     -0.333981100000    -0.389949500000    -0.385987900000     2.610492657915     1.095495717296     2.053643093393
5
Properties=species:S:1:pos:R:3:forces:R:3 energy=-1100.913256225896 pbc="F F F"
H     -0.032187000000     0.598289600000    -0.030401800000    -1.347361001905     1.331882959711    -0.700162865504
H      0.794601900000    -0.613396100000    -0.492602500000    -1.667617635744    -1.333734154126     0.178588839005
H     -0.830202300000    -0.796385500000     0.578531800000     0.710704389258    -0.217515343793    -1.938714773445
H     -0.825110200000    -0.533908100000    -1.407656600000     0.351932627167     0.600095522946     1.863741399627
C     -0.335194200000    -0.385529300000    -0.380142400000     1.952598731560    -0.380420452335     0.596341712048
5
Properties=species:S:1:pos:R:3:forces:R:3 energy=-1100.952612869844 pbc="F F F"
H     -0.075557900000     0.553435100000    -0.040549700000    -0.530675732374     3.613582920649    -0.062066434978
H      0.733507800000    -0.636570600000    -0.528525700000    -0.310332174891    -1.372146438242     0.405308732807
H     -0.793342300000    -0.776843800000     0.554678500000     0.014706711188    -0.880140100321    -1.028955562481
H     -0.773161300000    -0.535884000000    -1.417634900000    -0.190158804101     0.609454339156     1.835870639264
C     -0.334142000000    -0.381578500000    -0.373628300000     1.016819954647    -1.970647877108    -1.150568751150
5
Properties=species:S:1:pos:R:3:forces:R:3 energy=-1100.966623196167 pbc="F F F"
H     -0.126793300000     0.557132700000    -0.052105400000    -0.048850963736     4.164261837121     0.131691913819
H      0.668506600000    -0.678872900000    -0.558916500000     1.383099338533    -1.327872038477     0.514066404704
H     -0.756557100000    -0.769759900000     0.517101300000    -0.904976958725    -1.638512745771     0.431379720822
H     -0.724126500000    -0.529491700000    -1.402642100000    -0.946011768264     0.476682561929     1.173914369609
C     -0.331849900000    -0.379755200000    -0.368405200000     0.517614527333    -1.674302504466    -2.251926584093
5
Properties=species:S:1:pos:R:3:forces:R:3 energy=-1101.056000626247 pbc="F F F"
H     -0.179225200000     0.615725100000    -0.062637000000     0.036509667634     1.993890651433    -0.315525803667
H      0.622151100000    -0.739519200000    -0.582163300000     2.448513146580    -1.054152375355     0.582097799464
H     -0.732205300000    -0.785255700000     0.485226400000    -1.603802850485    -2.064904526085     1.566059053241
H     -0.688421000000    -0.516566200000    -1.371884400000    -1.763879745338     0.226051406930    -0.046434126583
C     -0.328859400000    -0.379653800000    -0.365671300000     0.882608359541     0.899731907882    -1.785836967985
5
Properties=species:S:1:pos:R:3:forces:R:3 energy=-1101.141766289060 pbc="F F F"
H     -0.230996700000     0.701749200000    -0.077401200000     0.213298734291    -0.685507576383    -0.648175155676
H      0.608285300000    -0.814342000000    -0.597115500000     2.053694515460    -0.300253449741     0.754721678687
H     -0.729363300000    -0.828576100000     0.473483300000    -1.527903879459    -1.591358710249     1.252230177787
H     -0.677134700000    -0.500473200000    -1.341810400000    -2.331322255681    -0.023448462593    -1.261280461595
C     -0.324795800000    -0.378594400000    -0.364911600000     1.592438573658     2.600876731369    -0.097290550935
5
Properties=species:S:1:pos:R:3:forces:R:3 energy=-1101.147362038482 pbc="F F F"
H     -0.279646900000     0.779436600000    -0.100768500000     0.503370614749    -2.356467646488    -0.591867992211
H      0.622136700000    -0.892973200000    -0.601504900000     0.773953531779     0.778427251616     0.919272293377
H     -0.747167900000    -0.893273700000     0.478069400000    -0.827741013955    -0.369159019643    -0.060678039167
H     -0.697727700000    -0.484561200000    -1.328169500000    -2.249715435209    -0.154266201271    -1.459101153692
C     -0.318910500000    -0.374704100000    -0.364307500000     1.800543679173     2.101311349585     1.192580579962
5
Properties=species:S:1:pos:R:3:forces:R:3 energy=-1101.047919933053 pbc="F F F"
H     -0.321272400000     0.825269800000    -0.132168400000     0.777861608878    -3.038684210578    -0.309406577683
H      0.647010600000    -0.960883100000    -0.593251900000    -0.388802249271     1.718885436633     0.895720986649
H     -0.776542700000    -0.963156200000     0.482169900000    -0.086029118242     0.864559213992    -1.119509822627
H     -0.748923800000    -0.470685100000    -1.333467100000    -1.420740291643    -0.182599760238    -0.442641153515
C     -0.310998600000    -0.368432500000    -0.362459000000     1.117710050279     0.637942164325     0.975528034774
5
Properties=species:S:1:pos:R:3:forces:R:3 energy=-1100.919317562133 pbc="F F F"
H     -0.352081700000     0.829397000000    -0.167797000000     0.986120980594    -2.970498549616     0.067979972694
H      0.667026200000    -1.005173500000    -0.572673300000    -1.060940088211     2.279591656188     0.686433173591
H     -0.807414500000    -1.021421000000     0.471397600000     0.415695990359     1.694717065101    -1.507900695361
H     -0.819632300000    -0.459366900000    -1.344748600000    -0.260247081545    -0.207796573113     0.785317808606
C     -0.301822600000    -0.361402600000    -0.359539300000    -0.080526957064    -0.795962176494    -0.032138791932
5
Properties=species:S:1:pos:R:3:forces:R:3 energy=-1100.890462336278 pbc="F F F"
H     -0.369200500000     0.792834600000    -0.202415600000     1.088862270641    -2.099254466902     0.497405654966
H      0.672760500000    -1.018024700000    -0.542613000000    -1.231558506817     2.420128165546     0.361805664049
H     -0.832769600000    -1.056471900000     0.440130100000     0.654808602330     2.076628757382    -1.354662935432
H     -0.894171300000    -0.450998200000    -1.345727500000     0.758012690981    -0.264309424845     1.452570551172
C     -0.292738700000    -0.355297800000    -0.356645100000    -1.269919368867    -2.133141609114    -0.957170356822
5
Properties=species:S:1:pos:R:3:forces:R:3 energy=-1100.966755443503 pbc="F F F"
H     -0.371274300000     0.728163200000    -0.230020200000     1.017694129788    -0.132771777228     0.966272062697
H      0.661860900000    -0.997524800000    -0.507569100000    -0.863787882986     2.088507254880    -0.035224115957
H     -0.849248600000    -1.062945500000     0.390371000000     0.635782437507     2.017184847825    -0.779301426756
H     -0.958488300000    -0.446332700000    -1.327118600000     1.444394442505    -0.322004984121     1.476841766839
C     -0.285125000000    -0.351722000000    -0.354850700000    -2.233877438545    -3.650503964820    -1.628793975091
5
Properties=species:S:1:pos:R:3:forces:R:3 energy=-1100.982386207863 pbc="F F F"
H     -0.359316500000     0.662696100000    -0.244116800000     0.770868207753     2.627873316592     1.405622203918
H      0.639671100000    -0.948454300000    -0.473064700000     0.194272569468     1.180804926599    -0.468712141530
H     -0.857189900000    -1.041768600000     0.330193800000     0.298350833259     1.439355079930     0.225434342125
H     -1.002980000000    -0.446131300000    -1.288400800000     1.781980312954    -0.341699635816     1.001547600721
C     -0.280123300000    -0.352425900000    -0.354959700000    -3.044854858629    -4.905922310767    -2.163994849369
5
Properties=species:S:1:pos:R:3:forces:R:3 energy=-1100.913959912338 pbc="F F F"
H     -0.336524600000     0.632339800000    -0.238824900000     0.548056391050     3.931474139403     1.583645400186
H      0.620958100000    -0.883399300000    -0.445053700000     1.842298397651    -0.158328544572    -0.834991525415
H     -0.861404600000    -1.001109900000     0.273679200000    -0.410965160187     0.303287351700     1.646226055835
H     -1.022947100000    -0.450647900000    -1.236130800000     1.741305457885    -0.304470059243     0.111945840056
C     -0.278695900000    -0.358660600000    -0.357597400000    -3.720335131929    -3.771397244550    -2.506877192728
5
Properties=species:S:1:pos:R:3:forces:R:3 energy=-1100.930753147109 pbc="F F F"
H     -0.305976800000     0.653197100000    -0.211987400000     0.376255264901     2.198190523984     1.242408562973
H      0.627356900000    -0.820082600000    -0.428434100000     2.851970684972    -1.084851349408    -0.947965806813
H     -0.871462800000    -0.956356800000     0.240219500000    -1.149334621539    -0.918295274102     3.020943597432
H     -1.019104000000    -0.459371800000    -1.182753200000     1.207390135284    -0.219880758879    -1.167949409826
C     -0.281537400000    -0.369040500000    -0.363117400000    -3.286332885686     0.025093968740    -2.147642632034
5
Properties=species:S:1:pos:R:3:forces:R:3 energy=-1101.041502671887 pbc="F F F"
H     -0.270352300000     0.703968600000    -0.168195600000     0.061397948106    -0.359903047566     0.526664811141
H      0.671076000000    -0.770645200000    -0.424728900000     1.774678379427    -0.974242483096    -0.764337605233
H     -0.896495200000    -0.923294500000     0.247691500000    -0.964832244819    -1.192014937224     3.246532205757
H     -0.998930600000    -0.471170000000    -1.145959200000     0.213401578425    -0.131074849014    -2.607870132494
C     -0.288053400000    -0.379526700000    -0.371021600000    -1.084439972871     2.657595271370    -0.400732168836
5
Properties=species:S:1:pos:R:3:forces:R:3 energy=-1101.107508786738 pbc="F F F"
H     -0.233937800000     0.750959200000    -0.117034200000    -0.314805894728    -1.931258573717    -0.207333774509
H      0.738374200000    -0.734471400000    -0.431603500000    -0.383814308763    -0.512472320624    -0.467375167785
H     -0.933716000000    -0.905688200000     0.298749400000     0.277113519551    -0.465626817504     1.942417162276
H     -0.975516800000    -0.484826900000    -1.144896000000    -0.540600191322    -0.054455969049    -3.346650970383
C     -0.295864300000    -0.387126600000    -0.379315600000     0.962621095934     2.963865102961     2.079148438669
5
Properties=species:S:1:pos:R:3:forces:R:3 energy=-1101.070759265685 pbc="F F F"
H     -0.201843000000     0.772068000000    -0.068576500000    -0.620561505648    -2.501426453616    -0.775856148261
H      0.801053600000    -0.705795700000    -0.445057300000    -1.975173019012    -0.294751288563    -0.194221147401
H     -0.967163200000    -0.894647900000     0.376458100000     1.473705020746     0.268114657810     0.139353801815
H     -0.958337000000    -0.499155900000    -1.188713200000    -0.231964944645     0.093999538641    -2.464248299110
C     -0.302717300000    -0.391315200000    -0.385298700000     1.354200136828     2.434269233996     3.295383169493
5
Properties=species:S:1:pos:R:3:forces:R:3 energy=-1100.991995908837 pbc="F F F"
H     -0.178313300000     0.758938300000    -0.030738500000    -0.819204950818    -2.370403026670    -1.134422222083
H      0.837156600000    -0.681531000000    -0.461297500000    -2.649470584770    -0.320719432443     0.022985663989
H     -0.980752100000    -0.880402000000     0.456608900000     2.031942981080     0.552992909491    -1.277735523064
H     -0.943739400000    -0.512080000000    -1.265751400000     0.636656612647     0.312286213440    -0.504913276761
C     -0.308069700000    -0.392645100000    -0.387570600000     0.800333052196     1.825843336182     2.893776825517
5
Properties=species:S:1:pos:R:3:forces:R:3 energy=-1100.953547308840 pbc="F F F"
H     -0.166110800000     0.713363800000    -0.008502300000    -0.889858871001    -1.576292044592    -1.243488426382
H      0.837007300000    -0.661911000000    -0.477282600000    -2.578045333581    -0.483418852718     0.182342649903
H     -0.966533000000    -0.858848900000     0.519558100000     2.029834676330     0.458941948783    -2.105065160483
H     -0.920695900000    -0.520688100000    -1.350130200000     1.149540309808     0.485630001602     1.272439050154
C     -0.312470600000    -0.391836200000    -0.386492600000     0.290071880457     1.114521882119     1.891663582058
5
Properties=species:S:1:pos:R:3:forces:R:3 energy=-1101.001908744652 pbc="F F F"
H     -0.166152800000     0.646710300000    -0.003263600000    -0.773490733175     0.072813647000    -0.997382413287
H      0.801546000000    -0.649168700000    -0.490793500000    -1.814016260751    -0.736878221407     0.272845487982
H     -0.924363600000    -0.831166300000     0.553699000000     1.610436297140     0.099553121887    -2.350605530840
H     -0.882203800000    -0.522607500000    -1.417524300000     1.115087524857     0.559574934079     2.345771856534
C     -0.316521500000    -0.389756000000    -0.383202300000    -0.138119672205     0.004987940508     0.729576287880
5
Properties=species:S:1:pos:R:3:forces:R:3 energy=-1101.027204449100 pbc="F F F"
H     -0.176755200000     0.582051700000    -0.011523000000    -0.436059128927     2.485434190751    -0.375689622163
H      0.741575400000    -0.646827700000    -0.500595700000    -0.290997477665    -1.058317562789     0.267600437139
H     -0.860096900000    -0.802359700000     0.555690300000     0.795036579286    -0.496480057759    -1.923853796056
H     -0.828554500000    -0.516814200000    -1.452878900000     0.678617019393     0.524453662256     2.713645324499
C     -0.320755700000    -0.387711800000    -0.379080600000    -0.746648414154    -1.455038810392    -0.682473674425
5
Properties=species:S:1:pos:R:3:forces:R:3 energy=-1100.961487319168 pbc="F F F"
H     -0.193417800000     0.551413000000    -0.025158900000    -0.071322407054     4.158656831808     0.122744474145
H      0.678141900000    -0.659290000000    -0.506767600000     1.700630602816    -1.354765779566     0.170669840673
H     -0.785174900000    -0.780788800000     0.531768300000    -0.418524204049    -1.329517544624    -0.626012244760
H     -0.765746500000    -0.503823600000    -1.451048900000    -0.059083955087     0.361651397847     2.362432606271
C     -0.325854000000    -0.387278000000    -0.375759400000    -1.151597192491    -1.835819217197    -2.029834676330
5
Properties=species:S:1:pos:R:3:forces:R:3 energy=-1100.945936284169 pbc="F F F"
H     -0.211400500000     0.575708000000    -0.038013000000     0.045251419040     3.190379308495    -0.103821153456
H      0.637638500000    -0.690346000000    -0.510499300000     2.920362034203    -1.318256111932     0.119453461851
H     -0.716243500000    -0.777915400000     0.499855300000    -1.708806711484    -2.198653322588     1.253978528068
H     -0.704063000000    -0.485937400000    -1.417204900000    -1.048598792109     0.057181338605     1.086651121756
C     -0.332169500000    -0.388736800000    -0.374726500000    -0.208567904119     0.269400209487    -2.356210536153
5
Properties=species:S:1:pos:R:3:forces:R:3 energy=-1100.983304047913 pbc="F F F"
H     -0.228903400000     0.642831800000    -0.052567200000     0.026070988015     0.659282322167    -0.552941487424
H      0.635745900000    -0.739087500000    -0.512343400000     2.295223964584    -0.650232038359     0.234741736268
H     -0.670364400000    -0.805040700000     0.484275500000    -2.271981190259    -2.384801205455     2.087530235605
H     -0.657178500000    -0.467344800000    -1.369345900000    -2.118126365524    -0.322827737194    -1.157664996408
C     -0.338589100000    -0.389846900000    -0.376258100000     2.069069713520     2.698938613311    -0.611716910108
5
Properties=species:S:1:pos:R:3:forces:R:3 energy=-1100.984551145735 pbc="F F F"
H     -0.245993800000     0.719852000000    -0.074423900000     0.037743797244    -1.402485457826    -0.659025211832
H      0.664810600000    -0.796528400000    -0.510888000000     0.656402686410     0.358566073822     0.363091215726
H     -0.655096300000    -0.864077000000     0.495317100000    -1.855411024759    -1.372712080980     0.852783560629
H     -0.639465200000    -0.453167800000    -1.337400800000    -2.750154992133    -0.612333974913    -3.049277156398
C     -0.342622200000    -0.388006500000    -0.378352800000     3.911933753908     3.029119706099     2.492273325674
5
Properties=species:S:1:pos:R:3:forces:R:3 energy=-1100.985787359002 pbc="F F F"
H     -0.262515400000     0.778379800000    -0.105161800000     0.084332190028    -2.498392551658    -0.464906908565
H      0.703413900000    -0.849169600000    -0.504512900000    -0.741094830908     1.198391273544     0.358977450359
H     -0.665476600000    -0.941765200000     0.517771100000    -1.124086386598     0.137965406004    -0.890270247537
H     -0.659004100000    -0.447291800000    -1.344945500000    -2.347263096479    -0.675943071904    -2.381921569698
C     -0.342221000000    -0.382752200000    -0.377756800000     4.127957857755     1.838236054351     3.378121275442
5
Properties=species:S:1:pos:R:3:forces:R:3 energy=-1100.967913560092 pbc="F F F"
H     -0.277842800000     0.802829100000    -0.142249400000     0.143261878914    -2.797514715923    -0.126703973311
H      0.732363800000    -0.885440900000    -0.493236600000    -1.529497963539     1.689729124593     0.247340142705
H     -0.691771000000    -1.017915300000     0.528720600000    -0.522139669237     1.345664073691    -1.873151637905
H     -0.710471400000    -0.450666700000    -1.383767900000    -1.161161696970    -0.557260941060     0.007353355594
C     -0.337091100000    -0.375362400000    -0.373446300000     3.069486028765     0.320256633840     1.744442203977
5
Properties=species:S:1:pos:R:3:forces:R:3 energy=-1100.929115565898 pbc="F F F"
H     -0.291168800000     0.788956100000    -0.181037000000     0.197666425896    -2.343200753179     0.278347649161
H      0.740540700000    -0.898437900000    -0.478557700000    -1.753801020188     1.841578488711     0.081606820473
H     -0.725594400000    -1.075796200000     0.514342600000    -0.105723769938     2.065264480555    -2.080639678615
H     -0.778222600000    -0.461782100000    -1.423289200000     0.036098291098    -0.379443433061     1.829802835348
C     -0.328384600000    -0.367592200000    -0.367093500000     1.625760073133    -1.183787406490    -0.109374736701
5
Properties=species:S:1:pos:R:3:forces:R:3 energy=-1100.979567652498 pbc="F F F"
H     -0.301764500000     0.743363200000    -0.215883700000     0.217566765860    -0.945754657928     0.719857517200
H      0.724813400000    -0.886057900000    -0.462773100000    -1.400479997209     1.631827877049    -0.117499423302
H     -0.761081400000    -1.105266300000     0.471434300000     0.149329682831     2.337492903732    -1.752515468511
H     -0.845864000000    -0.478217500000    -1.438503700000     0.907599484147    -0.204916937356     2.547449203662
C     -0.317769400000    -0.361228200000    -0.360810400000     0.125881220237    -2.818392075162    -1.397703205586
5
Properties=species:S:1:pos:R:3:forces:R:3 energy=-1101.070113267381 pbc="F F F"
H     -0.309411200000     0.685665000000    -0.240672300000     0.154728999875     1.362684777898     1.136119150297
H      0.690348200000    -0.851362600000    -0.448672800000    -0.291357432135     0.960718479451    -0.348950147276
H     -0.794691100000    -1.102548700000     0.404504500000     0.214532863901     2.129439220284    -0.966529173033
H     -0.901164000000    -0.497537900000    -1.418958400000     1.459255419894    -0.043451646691     2.462911325366
C     -0.307022400000    -0.358182400000    -0.356132700000    -1.537005585334    -4.409185142673    -2.283859687757
5
Properties=species:S:1:pos:R:3:forces:R:3 energy=-1101.081804095158 pbc="F F F"
H     -0.314996300000     0.646599900000    -0.249760500000     0.010438679619     3.213159284216     1.368495471479
H      0.652784400000    -0.803763700000    -0.439471300000     1.608842213060    -0.152826383393    -0.584257526282
H     -0.825649900000    -1.070735800000     0.324634500000    -0.027459383826     1.299435635376     0.329512605916
H     -0.936372700000    -0.517482200000    -1.365615500000     1.704847212318     0.103872575523     1.764856764612
C     -0.298098300000    -0.360176100000    -0.354114400000    -3.296257344634    -4.463384001387    -2.878607315725
5
Properties=species:S:1:pos:R:3:forces:R:3 energy=-1101.062159923473 pbc="F F F"
H     -0.320382200000     0.649530000000    -0.240113800000    -0.091942655958     2.663817341488     1.241431543698
H      0.637482500000    -0.758143200000    -0.438305100000     3.197424131686    -1.100586501938    -0.686690283926
H     -0.857466700000    -1.021447100000     0.249889400000    -0.648637954279    -0.108706249829     2.029731832195
H     -0.948206400000    -0.536015600000    -1.288330600000     1.508774870502     0.210213410266     0.392144683632
C     -0.292951400000    -0.367116600000    -0.355436000000    -3.965258437481    -1.664737999987    -2.976977730069
5
Properties=species:S:1:pos:R:3:forces:R:3 energy=-1101.037525727819 pbc="F F F"
H     -0.326918200000     0.687847900000    -0.213484000000    -0.084537878297     0.512935119228     0.777758764744
H      0.664191500000    -0.726739600000    -0.446378400000     2.569355004243    -1.101306410877    -0.482904632047
H     -0.898250300000    -0.973415900000     0.203171800000    -1.119972621231    -1.259120734778     3.355444143855
H     -0.939734000000    -0.551748400000    -1.206483100000     0.620201551178     0.190467336503    -1.749532988619
C     -0.292188200000    -0.375964700000    -0.360145300000    -1.984737523491     1.657076111991    -1.900970976201
5
Properties=species:S:1:pos:R:3:forces:R:3 energy=-1100.937357622611 pbc="F F F"
H     -0.334577600000     0.733879500000    -0.176099500000    -0.021854378513    -1.278404009936     0.192678485388
H      0.724891000000    -0.710106300000    -0.460977800000     0.300356293875    -0.546153774568    -0.082018197009
H     -0.953259500000    -0.941418500000     0.201683100000    -0.426443202381    -1.138176032981     3.243189771397
H     -0.923182500000    -0.565033700000    -1.149355300000    -0.706436357689     0.004936518441    -3.984541712640
C     -0.293668700000    -0.383078900000    -0.366932300000     0.854223378507     2.958054409380     0.630948763200
5
Properties=species:S:1:pos:R:3:forces:R:3 energy=-1100.866194950108 pbc="F F F"
H     -0.342519600000     0.763108800000    -0.135929900000     0.061037993636    -2.148311118906    -0.323650490267
H      0.790347900000    -0.701316600000    -0.476791800000    -1.596860871428    -0.122230253474     0.273565396921
H     -1.013238300000    -0.924483500000     0.244132700000     1.086136901085    -0.276033656142     1.897525697706
H     -0.915307000000    -0.578071100000    -1.145772600000    -1.033172171982    -0.026122410082    -4.349124168312
C     -0.294378900000    -0.386878700000    -0.373044200000     1.482601038353     2.572903126872     2.501992096354
5
Properties=species:S:1:pos:R:3:forces:R:3 energy=-1100.919886007987 pbc="F F F"
H     -0.349608700000     0.763135800000    -0.100113400000     0.141256418298    -2.247144331854    -0.687564459067
H      0.834619600000    -0.694527000000    -0.488929500000    -2.510425315357     0.057335604806     0.500233868656
H     -1.058473600000    -0.911758000000     0.312957200000     2.254189155045     0.340979726877     0.344579271573
H     -0.920044600000    -0.590987900000    -1.200126100000     0.100735829430     0.317531264284    -2.319546602317
C     -0.293560400000    -0.387714200000    -0.376448600000     0.014655289121     1.531349157955     2.162503609423
5
Properties=species:S:1:pos:R:3:forces:R:3 energy=-1100.961973858751 pbc="F F F"
H     -0.354758200000     0.732471700000    -0.073707300000     0.188204765551    -1.662218318700    -0.860496870692
H      0.844652200000    -0.687134100000    -0.494202000000    -2.621085603736     0.061655058441     0.605906216527
H     -1.072980200000    -0.894796400000     0.387026300000     2.718478998805     0.505273231231    -0.867490271816
H     -0.923484500000    -0.599472700000    -1.286568800000     1.213560783335     0.666481411560     0.128812278062
C     -0.292718500000    -0.386750800000    -0.377384700000    -1.498850411553     0.428654351266     0.993268647920
5
Properties=species:S:1:pos:R:3:forces:R:3 energy=-1100.993636755415 pbc="F F F"
H     -0.357342700000     0.679413500000    -0.059059300000     0.176069157718    -0.319485302833    -0.781049777037
H      0.818781100000    -0.679047900000    -0.491117700000    -2.026029443365    -0.084280767961     0.599375614007
H     -1.050075700000    -0.871126400000     0.449470300000     2.609001417970     0.347407485263    -1.629359617829
H     -0.910822300000    -0.598896100000    -1.372208300000     1.598660643776     0.794470936548     1.775963931104
C     -0.293570800000    -0.385289400000    -0.377126200000    -2.357598931964    -0.738009506883     0.034967005622
5
Properties=species:S:1:pos:R:3:forces:R:3 energy=-1101.037669403938 pbc="F F F"
H     -0.357524100000     0.622647800000    -0.055026100000     0.115236852350     1.633524805263    -0.439452985355
H      0.765468400000    -0.672337000000    -0.479775400000    -0.633828398957    -0.396669825536     0.476939672264
H     -0.991168500000    -0.842841100000     0.489652700000     2.030194630799    -0.031984525730    -1.903696345757
H     -0.876401800000    -0.587411600000    -1.433925600000     1.434778515959     0.732918722241     2.605607561542
C     -0.297171000000    -0.384704700000    -0.376809300000    -2.946330178083    -1.937892020372    -0.739603590962
5
Properties=species:S:1:pos:R:3:forces:R:3 energy=-1101.073926671018 pbc="F F F"
H     -0.356039200000     0.588263400000    -0.057162000000     0.098781790881     3.120805251721    -0.125264155432
H      0.704093600000    -0.671321600000    -0.461858400000     1.402331191624    -0.814114166176     0.270582917030
H     -0.904391700000    -0.815235500000     0.503904900000     0.966786283368    -0.613773792792    -1.540348019695
H     -0.822279700000    -0.565833900000    -1.459900000000     0.923386058744     0.520545585157     2.775300382940
C     -0.304229200000    -0.386312100000    -0.377351000000    -3.391850967355    -2.213617144111    -1.380939611715
5
Properties=species:S:1:pos:R:3:forces:R:3 energy=-1101.146481750144 pbc="F F F"
H     -0.353025800000     0.595289100000    -0.061597800000     0.192729907455     2.748252375651    -0.240501007782
H      0.661790000000    -0.681437500000    -0.440116300000     2.911980237267    -0.989411992888     0.092868253165
H     -0.804605300000    -0.796459300000     0.497585700000    -0.526613389074    -1.385927552223    -0.341802479950
H     -0.755575900000    -0.537146400000    -1.447874900000     0.107060743682     0.152312162722     2.177004632343
C     -0.315167000000    -0.390318000000    -0.379485100000    -2.685414609666    -0.525173571195    -1.688083618446
5
Properties=species:S:1:pos:R:3:forces:R:3 energy=-1101.166710150287 pbc="F F F"
H     -0.347330600000     0.639089500000    -0.069668300000     0.274439572062     0.952490948717    -0.576338527950
H      0.657887900000    -0.704624500000    -0.416983100000     2.509191185747    -0.532578348856    -0.018357677951
H     -0.712082600000    -0.797035900000     0.487003500000    -1.897834230108    -2.079559815206     1.222045424405
H     -0.687729400000    -0.506497500000    -1.406727700000    -1.003913015807    -0.358051853151     0.410193829181
C     -0.329041400000    -0.394853900000    -0.383519200000     0.118322176375     2.018161867100    -1.037645891819
5
Properties=species:S:1:pos:R:3:forces:R:3 energy=-1100.982563081872 pbc="F F F"
H     -0.337941900000     0.696358000000    -0.085542100000     0.235204534872    -0.793751027609    -0.706230669421
H      0.687636600000    -0.734843200000    -0.394172300000     0.855508930184     0.280404531844    -0.174320807437
H     -0.644993200000    -0.825835800000     0.492000900000    -2.347417362680    -2.021864255931     1.533920261309
H     -0.633978300000    -0.480882800000    -1.361214500000    -2.112675626412    -0.877209042497    -2.406501317767
C     -0.342732300000    -0.397137000000    -0.388546200000     3.369945166775     3.412676904527     1.753029689182
5
Properties=species:S:1:pos:R:3:forces:R:3 energy=-1100.790621856158 pbc="F F F"
H     -0.325368200000     0.743339700000    -0.110992900000     0.102535601778    -1.853714096545    -0.571299165375
H      0.729663400000    -0.761369200000    -0.373850800000    -0.611151267370     0.917421098961    -0.367719201764
H     -0.609865800000    -0.881805000000     0.516433400000    -2.030348897001    -1.033429282317     0.205893956630
H     -0.608896100000    -0.467259800000    -1.347839200000    -2.451341360270    -1.151597192491    -3.845342177026
C     -0.352629400000    -0.395577000000    -0.391493000000     4.990151656662     3.121987959264     4.578569431669
5
Properties=species:S:1:pos:R:3:forces:R:3 energy=-1100.825658420461 pbc="F F F"
H     -0.311399100000     0.765167600000    -0.144256600000    -0.066385888614    -2.213874254446    -0.271251403902
H      0.763877000000    -0.775440700000    -0.358622400000    -1.456890004807     1.224102307089    -0.516431819790
H     -0.603033800000    -0.951988700000     0.543667100000    -1.564207858825     0.197923536231    -1.258452247905
H     -0.616846700000    -0.469331900000    -1.383989800000    -1.742591009562    -1.067727801067    -1.896702944632
C     -0.356836700000    -0.390437900000    -0.389431700000     4.830177605943     1.859833322529     3.942992682431
5
Properties=species:S:1:pos:R:3:forces:R:3 energy=-1100.884506035992 pbc="F F F"
H     -0.298360300000     0.756792100000    -0.181220700000    -0.236901463086    -1.873820124777     0.115699650954
H      0.778304300000    -0.772691600000    -0.350541500000    -1.763468368801     1.249761918567    -0.593359232157
H     -0.618182500000    -1.019735500000     0.554127300000    -1.154785360651     1.162395826580    -2.031634448678
H     -0.648886300000    -0.486099000000    -1.445797700000    -0.736364000736    -0.761200859140     0.926882759306
C     -0.355434900000    -0.383144800000    -0.382895900000     3.891622037408     0.223223193240     1.581948471972
5
Properties=species:S:1:pos:R:3:forces:R:3 energy=-1100.901955609394 pbc="F F F"
H     -0.288617800000     0.723132500000    -0.216523000000    -0.390447755418    -0.714355356021     0.537309179028
H      0.768625300000    -0.752732300000    -0.350689500000    -1.550632433113     1.020265233142    -0.600609743617
H     -0.649563800000    -1.071635500000     0.536892400000    -0.799407454989     1.756732078012    -2.151704975334
H     -0.691532700000    -0.513468700000    -1.496123600000     0.041549030209    -0.399086662689     2.573931568214
C     -0.349477300000    -0.375613800000    -0.374447400000     2.698938613311    -1.663246760042    -0.359080294493
5
Properties=species:S:1:pos:R:3:forces:R:3 energy=-1100.951518972126 pbc="F F F"
H     -0.284320300000     0.680332000000    -0.244348000000    -0.528258895221     1.135964884096     0.913667288064
H      0.737995900000    -0.718812700000    -0.359174200000    -0.675223162965     0.509952639336    -0.544096891884
H     -0.692195400000    -1.099371600000     0.490097200000    -0.495503038484     1.967871085486    -1.769227640315
H     -0.733901600000    -0.546452600000    -1.511702200000     0.558392226536    -0.056924228269     3.100544957288
C     -0.340381100000    -0.370045100000    -0.366362600000     1.140438603933    -3.556555848246    -1.701196245554
5
Properties=species:S:1:pos:R:3:forces:R:3 energy=-1101.047683193995 pbc="F F F"
H     -0.287443300000     0.653007900000    -0.259594700000    -0.684067758505     2.573880146147     1.104751689372
H      0.698821600000    -0.678060300000    -0.375226000000     0.948737137819    -0.251196797737    -0.443155374186
H     -0.741881100000    -1.100084100000     0.419067800000    -0.295162665099     1.714977359535    -0.915467060412
H     -0.768682200000    -0.580283800000    -1.484713400000     0.869547154500     0.241478027057     2.869659876051
C     -0.329989000000    -0.368548300000    -0.360238700000    -0.838899602514    -4.279087312934    -2.615943397027
5
Properties=species:S:1:pos:R:3:forces:R:3 energy=-1101.197457383811 pbc="F F F"
H     -0.300137000000     0.659449300000    -0.259704500000    -0.821416099703     2.171245360828     1.016460000178
H      0.673069400000    -0.640774200000    -0.397461900000     2.614349312947    -0.952902325254    -0.317634108418
H     -0.795946800000    -1.077427200000     0.335766800000    -0.304881435779     0.919477981645     0.398469597884
H     -0.791564700000    -0.610817700000    -1.418360000000     0.930945102606     0.462541493479     1.911615344089
C     -0.320551500000    -0.371835700000    -0.357142400000    -2.418636925601    -2.599642601759    -3.009322210269
5
Properties=species:S:1:pos:R:3:forces:R:3 energy=-1101.290857200974 pbc="F F F"
H     -0.324119600000     0.694660700000    -0.245849900000    -0.782849549385     0.410708049852     0.699288690363
H      0.681973300000    -0.616178200000    -0.424040600000     2.677906987871    -1.125011983806    -0.100375874961
H     -0.854533500000    -1.042257300000     0.258256900000    -0.501982218937    -0.154420467473     1.863947087896
H     -0.801917500000    -0.635069700000    -1.326365600000     0.552118734350     0.502187907206    -0.012546984370
C     -0.313749000000    -0.378051900000    -0.357494400000    -1.944782577362     0.366536494221    -2.450878561666
5
Properties=species:S:1:pos:R:3:forces:R:3 energy=-1101.135147663637 pbc="F F F"
H     -0.358813000000     0.735876400000    -0.222315600000    -0.533761056399    -1.197311410135     0.283438433803
H      0.726166000000    -0.606771400000    -0.451854400000     0.949302780557    -0.828100968425     0.250271200529
H     -0.919806200000    -1.008652000000     0.206133400000    -0.395589962127    -0.733535787046     2.725626666131
H     -0.805248700000    -0.652689500000    -1.235625300000    -0.390602021619     0.216949701055    -2.775248960873
C     -0.309038900000    -0.383922400000    -0.360582700000     0.370341727186     2.541792776282    -0.484550138194
5
Properties=species:S:1:pos:R:3:forces:R:3 energy=-1100.849312461991 pbc="F F F"
H     -0.400844000000     0.761250200000    -0.194775100000    -0.166710341507    -2.035645369911    -0.104129685858
H      0.783547800000    -0.608905000000    -0.476181700000    -0.934750335571    -0.463621356888     0.589399732991
H     -0.989671700000    -0.984257000000     0.190900200000     0.466500992645    -0.458633416380     2.533205291078
H     -0.813881900000    -0.667344600000    -1.182726900000    -1.132365339399    -0.092302610427    -4.605051796221
C     -0.303989100000    -0.386968800000    -0.364220600000     1.767479290034     3.049791377069     1.586010815272
5
Properties=species:S:1:pos:R:3:forces:R:3 energy=-1100.795903041958 pbc="F F F"
H     -0.445183000000     0.758987800000    -0.168561900000     0.223223193240    -2.119771871671    -0.381706004013
H      0.828796100000    -0.617638800000    -0.492401800000    -2.040530466284    -0.186404993203     0.806966498851
H     -1.052642500000    -0.965988500000     0.210357600000     1.637330038228     0.085463475504     1.665560753061
H     -0.836586200000    -0.682480000000    -1.190732300000    -0.480333528692     0.219983603013    -3.586329225091
C     -0.297123600000    -0.386585200000    -0.366226800000     0.660310763509     2.000678364289     1.495713665461
5
Properties=species:S:1:pos:R:3:forces:R:3 energy=-1100.872479963938 pbc="F F F"
H     -0.486477900000     0.727828800000    -0.147527400000     0.541320100261    -1.516488180565    -0.514889157777
H      0.846385000000    -0.629087000000    -0.497474100000    -2.354565030006    -0.000874175141     0.892635662624
H     -1.093104800000    -0.946849000000     0.253010400000     2.473401427052     0.373324207077     0.670749443128
H     -0.865268000000    -0.694215300000    -1.247338500000     0.812725770365     0.804498239631    -1.158847703951
C     -0.289578900000    -0.383905300000    -0.366600500000    -1.472625157337     0.339539908998     0.110351755976
5
Properties=species:S:1:pos:R:3:forces:R:3 energy=-1100.905197846038 pbc="F F F"
H     -0.520401700000     0.676223500000    -0.133505400000     0.680622480010    -0.239421144373    -0.477916691539
H      0.831792700000    -0.640663800000    -0.490186500000    -1.973578934933     0.081658242540     0.856280261191
H     -1.099569000000    -0.922875800000     0.305255000000     2.767587072877     0.326632970159    -0.160025472786
H     -0.883243700000    -0.695080900000    -1.320882400000     1.590690223377     1.082485934322     0.757395626176
C     -0.283704700000    -0.380816300000    -0.366806500000    -3.065166575129    -1.251304580580    -0.975682300975
5
Properties=species:S:1:pos:R:3:forces:R:3 energy=-1100.922259929303 pbc="F F F"
H     -0.545062700000     0.621796600000    -0.125984200000     0.601278230489     1.458072712351    -0.284055498608
H      0.790415200000    -0.651267900000    -0.471039700000    -0.859417007283     0.017792035213     0.707104844561
H     -1.067876000000    -0.894613600000     0.355592000000     2.541072867343     0.031984525730    -0.702939657127
H     -0.879650100000    -0.681171700000    -1.384789200000     1.766296582491     1.031063867231     1.852428544867
C     -0.281374800000    -0.379173000000    -0.368111700000    -4.049024984772    -2.538707452257    -1.572589655761
5
Properties=species:S:1:pos:R:3:forces:R:3 energy=-1100.978679744973 pbc="F F F"
H     -0.561337900000     0.587252200000    -0.122451000000     0.501570842401     2.677392767200    -0.104695328596
H      0.737765700000    -0.661806900000    -0.442074900000     0.871963991653    -0.192009998516     0.488509637360
H     -1.001175000000    -0.866097000000     0.396529800000     1.814684747623    -0.431071188419    -0.859211319015
H     -0.851763200000    -0.653067500000    -1.423463800000     1.550169634510     0.763874806629     2.322786192544
C     -0.283782700000    -0.380418400000    -0.371236300000    -4.738440638254    -2.818083542760    -1.847389182293
5
Properties=species:S:1:pos:R:3:forces:R:3 energy=-1101.129816953115 pbc="F F F"
H     -0.570244200000     0.588443200000    -0.120680300000     0.671109397598     2.456894943516    -0.160282583121
H      0.697060500000    -0.674949100000    -0.406239100000     2.334047625237    -0.314188829923     0.289609081854
H     -0.909607700000    -0.843737300000     0.426010700000     0.629611789456    -0.994502777530    -0.526613389074
H     -0.802528500000    -0.614463400000    -1.430289800000     1.014197429226     0.323701912335     2.187700422297
C     -0.291693900000    -0.384810900000    -0.376502800000    -4.649069085650    -1.472213780800    -1.790722064359
5
Properties=species:S:1:pos:R:3:forces:R:3 energy=-1101.296314444441 pbc="F F F"
H     -0.569577200000     0.622666400000    -0.121334900000     0.981390150422     1.087730985165    -0.364119657068
H      0.687160300000    -0.691933200000    -0.366345100000     2.269770041374     0.012855516773     0.083406592821
H     -0.809420800000    -0.835250000000     0.448571300000    -0.703196767462    -1.498953255688     0.160899647926
H     -0.739526700000    -0.571524600000    -1.407528700000     0.104746750663    -0.284672563413     1.134473644150
C     -0.304876400000    -0.390854200000    -0.383810300000    -2.652607330862     0.683193583364    -1.014660227829
5
Properties=species:S:1:pos:R:3:forces:R:3 energy=-1101.229226404881 pbc="F F F"
H     -0.555408000000     0.672024300000    -0.126976700000     1.100637924005    -0.400475058501    -0.483367430651
H      0.707509500000    -0.708356600000    -0.325464600000     0.936601529986     0.648997908749    -0.263486671772
H     -0.718525500000    -0.847287900000     0.472969300000    -1.581177140965    -1.606528220041     0.491389273117
H     -0.675435400000    -0.532684300000    -1.370407400000    -1.097038379308    -0.977224962987    -1.163167157587
C     -0.321044400000    -0.396147500000    -0.392142400000     0.641387442820     2.335281754847     1.418580564825
5
Properties=species:S:1:pos:R:3:forces:R:3 energy=-1100.933467754979 pbc="F F F"
H     -0.526155700000     0.716329200000    -0.139207300000     0.942515067701    -1.432515945007    -0.450920106316
H      0.741043200000    -0.715901000000    -0.288349200000    -0.392350371900     1.125011983806    -0.672137838940
H     -0.648993200000    -0.881112000000     0.503121900000    -1.818489980588    -1.130822677387    -0.077287366837
H     -0.626287200000    -0.507292600000    -1.349746100000    -1.918814433481    -1.461415146711    -3.453300337528
C     -0.336536800000    -0.398802700000    -0.398705800000     3.187345406536     2.900050317702     4.653748493756
5
Properties=species:S:1:pos:R:3:forces:R:3 energy=-1100.814343109811 pbc="F F F"
H     -0.483933500000     0.741233000000    -0.157612900000     0.584823169020    -1.894440373680    -0.297116703649
H      0.769755600000    -0.708089900000    -0.260513800000    -1.168720740832     1.266782622774    -0.973831106560
H     -0.604598700000    -0.930429600000     0.531767800000    -1.758891804830    -0.358771762090    -1.014660227829
H     -0.602630200000    -0.501768400000    -1.373815900000    -1.643500686279    -1.456015829667    -2.867191616831
C     -0.348460900000    -0.398148200000    -0.400087900000     3.986444329122     2.442496764731     5.153159609338
5
Properties=species:S:1:pos:R:3:forces:R:3 energy=-1100.881568566870 pbc="F F F"
H     -0.433658000000     0.740301900000    -0.180081500000     0.107369276085    -1.749790098955    -0.057489871007
H      0.782690400000    -0.682870800000    -0.246126200000    -1.432978743610     1.120589686036    -1.113596284911
H     -0.584759600000    -0.984851400000     0.546577200000    -1.623960300784     0.359028872426    -1.660264280150
H     -0.601373200000    -0.516192700000    -1.435402700000    -0.832986064799    -1.077857948284    -0.113539924136
C     -0.355792300000    -0.394681700000    -0.395686400000     3.782555833109     1.347926644643     2.944787516071
5
Properties=species:S:1:pos:R:3:forces:R:3 energy=-1100.908251779892 pbc="F F F"
H     -0.381943100000     0.715682800000    -0.203287200000    -0.424232053496    -0.904719848390     0.240655273983
H      0.776079300000    -0.642233000000    -0.247152200000    -1.238397641740     0.737135331742    -1.096061360034
H     -0.587607600000    -1.034478000000     0.538680900000    -1.441206274345     0.879780145851    -1.843738215529
H     -0.612050600000    -0.545596000000    -1.499430800000    -0.214532863901    -0.592485057017     2.060585072450
C     -0.358695300000    -0.389665400000    -0.387816500000     3.318060301080    -0.119453461851     0.638250696727
5
Properties=species:S:1:pos:R:3:forces:R:3 energy=-1100.902530313866 pbc="F F F"
H     -0.336132900000     0.679172000000    -0.223101200000    -0.924774454555     0.577469813426     0.553815662564
H      0.752728500000    -0.591507400000    -0.263349600000    -0.524505084323     0.153494870265    -0.926060006232
H     -0.610574800000    -1.072070100000     0.505455900000    -1.205796051205     1.152214257296    -1.601643123667
H     -0.626052300000    -0.583331300000    -1.536040500000     0.131331959349    -0.132668933093     3.027679888220
C     -0.357727700000    -0.384808100000    -0.379133200000     2.523537942465    -1.749944365156    -1.054100953288
5
Properties=species:S:1:pos:R:3:forces:R:3 energy=-1100.919995669872 pbc="F F F"
H     -0.303147600000     0.650708900000    -0.235263200000    -1.322472721433     1.987925691651     0.775547615859
H      0.722627800000    -0.538749900000    -0.292369700000     0.677588578051    -0.525019304994    -0.633057067951
H     -0.650391900000    -1.093881100000     0.450249000000    -0.942155113232     1.118738491620    -0.972854087285
H     -0.638423400000    -0.622997800000    -1.531253800000     0.291306010068     0.263846626241     3.111240747242
C     -0.353838000000    -0.381959900000    -0.371646700000     1.295578980345    -2.845285816250    -2.281288584402
5
Properties=species:S:1:pos:R:3:forces:R:3 energy=-1101.027173972348 pbc="F F F"
H     -0.288562700000     0.648573000000    -0.236823700000    -1.612236069488     2.154636033158     0.779507115025
H      0.701995900000    -0.493195400000    -0.330202900000     1.829391458811    -1.076212442137    -0.293362892751
H     -0.703434700000    -1.100421000000     0.381795600000    -0.704533741207     0.754207458016    -0.027665072095
H     -0.646911400000    -0.659084100000    -1.483758800000     0.275056636867     0.556952408657     2.430823955501
C     -0.348413600000    -0.382300800000    -0.366785200000     0.212270292950    -2.389994834231    -2.889611638082
5
Properties=species:S:1:pos:R:3:forces:R:3 energy=-1101.183992917893 pbc="F F F"
H     -0.296361600000     0.674922000000    -0.227744500000    -1.729632648655     0.936190153449     0.551758779881
H      0.705757100000    -0.462332700000    -0.372150000000     1.969310903364    -1.314707989302     0.046279860381
H     -0.766390700000    -1.096591300000     0.313044600000    -0.496531479826     0.239523988507     0.982829968300
H     -0.651852300000    -0.687622900000    -1.403358100000    -0.007764732131     0.626063666827     0.767371507191
C     -0.342623500000    -0.385305200000    -0.365210700000     0.264309424845    -0.486864131213    -2.348240115754
5
Properties=species:S:1:pos:R:3:forces:R:3 energy=-1101.166114765161 pbc="F F F"
H     -0.328035900000     0.714028600000    -0.211082400000    -1.557471568036    -0.613465260389     0.200494639586
H      0.735652200000    -0.449557700000    -0.413427600000     0.927242713776    -1.275678640381     0.399189506823
H     -0.836140100000    -1.089092700000     0.257632100000    -0.150512390374    -0.015323775993     1.637124349960
H     -0.657341900000    -0.707874800000    -1.313524800000    -0.649614973554     0.299739229070    -1.947456524851
C     -0.336406600000    -0.388866100000    -0.366241900000     1.430716172658     1.605345512498    -0.289711925988
5
Properties=species:S:1:pos:R:3:forces:R:3 energy=-1100.960443762514 pbc="F F F"
H     -0.381202000000     0.745130100000    -0.191595700000    -1.114367615918    -1.689986234929    -0.139250957681
H      0.778192900000    -0.454465600000    -0.449155100000    -0.427317377522    -1.075698221466     0.716617926973
H     -0.907627100000    -1.081257600000     0.224451000000     0.494988817813     0.176737644590     1.713023320985
H     -0.671969100000    -0.724124100000    -1.250562600000    -1.272747582556    -0.139610912151    -4.214346930467
C     -0.328533100000    -0.390633400000    -0.367586800000     2.319700868519     2.728660568089     1.923596685721
5
Properties=species:S:1:pos:R:3:forces:R:3 energy=-1100.920407650257 pbc="F F F"
H     -0.449793600000     0.753353700000    -0.173933800000    -0.515711910850    -2.092929552650    -0.374661180821
H      0.815237300000    -0.474332500000    -0.474970800000    -1.390298427925    -0.784186523130     0.930070927466
H     -0.971996100000    -1.070755800000     0.214765700000     1.293779207996     0.534480965338     1.365307303319
H     -0.703204400000    -0.741367600000    -1.243049300000    -0.927037025507     0.165784744300    -3.648035705600
C     -0.318105000000    -0.389363300000    -0.366927700000     1.539113890085     2.176901788208     1.727267233569
5
Properties=species:S:1:pos:R:3:forces:R:3 energy=-1101.012647990261 pbc="F F F"
H     -0.525576800000     0.733020200000    -0.161367200000     0.108449139494    -1.844355280334    -0.480282106625
H      0.833482200000    -0.505130400000    -0.487908200000    -1.779974852337    -0.449480288438     1.017796973922
H     -1.018424000000    -1.052982400000     0.224016000000     1.946376661442     0.720114627535     0.854480488843
H     -0.746479100000    -0.755714300000    -1.284468900000     0.187022058008     0.939943964347    -1.268479550988
C     -0.305989700000    -0.385630700000    -0.364403200000    -0.461873006607     0.633931243091    -0.123670071353
5
Properties=species:S:1:pos:R:3:forces:R:3 energy=-1101.024037315881 pbc="F F F"
H     -0.599972400000     0.687562100000    -0.155381700000     0.619584486373    -0.991571719706    -0.460587454929
H      0.827473500000    -0.542232200000    -0.486736500000    -1.585239484265    -0.124287136158     0.981647260757
H     -1.037997300000    -1.025486700000     0.245277200000     2.256657414266     0.598964237470     0.379494855128
H     -0.787450700000    -0.757390800000    -1.344314200000     1.083462953596     1.343298658605     0.664784483346
C     -0.294402800000    -0.381139000000    -0.361972400000    -2.374516792037    -0.825838397473    -1.565493410503
5
Properties=species:S:1:pos:R:3:forces:R:3 energy=-1100.976772226812 pbc="F F F"
H     -0.665966700000     0.628760600000    -0.155711500000     0.899371953413     0.314034563722    -0.326684392226
H      0.799961300000    -0.581162100000    -0.471945800000    -0.795293689621     0.126035486439     0.836534187428
H     -1.026459800000    -0.989953900000     0.272059400000     2.143528866667     0.177046176993     0.080938333600
H     -0.813813100000    -0.740796900000    -1.395908100000     1.508723448435     1.287402871677     1.708703867350
C     -0.285555400000    -0.377582100000    -0.361311800000    -3.756279156825    -1.904004878159    -2.299749106488
5
Properties=species:S:1:pos:R:3:forces:R:3 energy=-1100.925350870642 pbc="F F F"
H     -0.719623700000     0.574383000000    -0.160539200000     0.970334405997     1.628588286823    -0.128503745659
H      0.761854500000    -0.618472300000    -0.445516500000     0.438630232282     0.259115796069     0.627400640571
H     -0.985421200000    -0.952206300000     0.300294300000     1.586987834546    -0.469586316670     0.055073033854
H     -0.819439000000    -0.706496100000    -1.424285000000     1.589456093767     0.947091631672     2.125325454917
C     -0.281073300000    -0.376205400000    -0.363323100000    -4.585357144525    -2.364952287558    -2.679449649884
5
Properties=species:S:1:pos:R:3:forces:R:3 energy=-1100.927571591855 pbc="F F F"
H     -0.759657400000     0.542056600000    -0.167196100000     1.067676379000     2.309570721302     0.047513989992
H      0.729733400000    -0.652194000000    -0.410288200000     1.519727770792     0.367256403160     0.425723293442
H     -0.922580100000    -0.921110100000     0.329630300000     0.679594038668    -1.173143038602     0.300870514546
H     -0.803124000000    -0.659151100000    -1.423485700000     1.386441772894     0.412970620804     2.017647646429
C     -0.281911700000    -0.377518800000    -0.368463100000    -4.653337117219    -1.916500440462    -2.792321087147
5
Properties=species:S:1:pos:R:3:forces:R:3 energy=-1101.022939064341 pbc="F F F"
H     -0.784485200000     0.540952200000    -0.173269300000     1.363404686837     2.055185755405     0.156168817754
H      0.717761200000    -0.680540000000    -0.369086100000     1.667617635744     0.663293243400     0.227594068942
H     -0.850246500000    -0.906152100000     0.363203400000    -0.241683715325    -1.622417638772     0.549753319264
H     -0.767818400000    -0.606229200000    -1.395278500000     0.810925998017    -0.297476658118     1.160184677695
C     -0.288111300000    -0.381018600000    -0.376812200000    -3.600213183206    -0.798276169513    -2.094009416059
5
Properties=species:S:1:pos:R:3:forces:R:3 energy=-1101.078033957625 pbc="F F F"
H     -0.790163200000     0.567870700000    -0.177223200000     1.703150284104     1.152934166236     0.204094184282
H      0.727997300000    -0.699368400000    -0.324821000000     0.869495732433     1.139101630188    -0.070911030518
H     -0.780815900000    -0.913233400000     0.403875200000    -0.774364908316    -1.505226747873     0.304521481310
H     -0.721751700000    -0.557619900000    -1.352221500000    -0.255567673440    -1.122029503914    -0.866307564273
C     -0.298444100000    -0.385457700000    -0.387440300000    -1.542610590647     0.335271877430     0.427985864394
5
Properties=species:S:1:pos:R:3:forces:R:3 energy=-1100.942984393013 pbc="F F F"
H     -0.772248300000     0.610751000000    -0.178395800000     1.829751413281     0.081555398406     0.187433434545
H      0.750178100000    -0.702377000000    -0.281674900000    -0.146861423610     1.508723448435    -0.470409069744
H     -0.721780000000    -0.940790700000     0.448115100000    -0.933207673558    -0.886927813177    -0.505478919499
H     -0.679427500000    -0.524532000000    -1.322120800000    -1.399143023465    -1.767684978302    -3.433245731363
C     -0.310574000000    -0.389542500000    -0.397419900000     0.649820661822     1.064231100505     4.221494597793
5
Properties=species:S:1:pos:R:3:forces:R:3 energy=-1100.896953612415 pbc="F F F"
H     -0.729087200000     0.654971000000    -0.177010200000     1.636507285155    -0.826249774010     0.115699650954
H      0.770700700000    -0.684612000000    -0.245078300000    -0.842344881009     1.582154160240    -0.840699374862
H     -0.675711100000    -0.980656500000     0.485260000000    -0.991108921102    -0.161053914127    -1.342373061397
H     -0.655347900000    -0.515453800000    -1.337207100000    -1.461723679114    -1.802497717723    -3.641093726543
C     -0.322063300000    -0.392434300000    -0.402673700000     1.658824462272     1.207801511821     5.708260823580
5
Properties=species:S:1:pos:R:3:forces:R:3 energy=-1101.057452897919 pbc="F F F"
H     -0.663357700000     0.688030500000    -0.174020400000     1.142598330750    -1.381710942721     0.030184753382
H      0.779947900000    -0.645040500000    -0.220104700000    -1.092358971203     1.354457247163    -1.085005615609
H     -0.643530900000    -1.022981200000     0.504077800000    -1.050861363061     0.399549461293    -1.792573258774
H     -0.650523800000    -0.530940700000    -1.399657800000    -0.541268678194    -1.273518913563    -0.963135316605
C     -0.331717200000    -0.393950400000    -0.401569000000     1.542096369976     0.901634524364     3.810735125874
5
Properties=species:S:1:pos:R:3:forces:R:3 energy=-1101.132113594095 pbc="F F F"
H     -0.581904400000     0.702295700000    -0.170567800000     0.411068004321    -1.459666796430    -0.021237313708
H      0.774395300000    -0.586791000000    -0.210144500000    -0.910633386105     0.875923490819    -1.173040194468
H     -0.626040400000    -1.059990800000     0.498311900000    -1.087988095500     0.718520543455    -1.796069959336
H     -0.653533100000    -0.564114900000    -1.475899400000     0.227491224808    -0.598964237470     1.619178048545
C     -0.339556900000    -0.394417400000    -0.396019500000     1.360267940744     0.464289843760     1.371066574833
5
Properties=species:S:1:pos:R:3:forces:R:3 energy=-1101.098580730984 pbc="F F F"
H     -0.494854300000     0.696755100000    -0.167322700000    -0.455136715818    -0.997433835354     0.003085324025
H      0.756570200000    -0.516495400000    -0.216419700000    -0.320308055907     0.210213410266    -1.097038379308
H     -0.623728500000    -1.087246900000     0.467864700000    -1.076366708338     0.769222701606    -1.391378291334
H     -0.653872200000    -0.605783300000    -1.531013800000     0.566876867605    -0.006633446655     2.930492181419
C     -0.345785200000    -0.394338200000    -0.388790700000     1.285294566927     0.025093968740    -0.445315101004
5
Properties=species:S:1:pos:R:3:forces:R:3 energy=-1101.032319373332 pbc="F F F"
H     -0.414154400000     0.677758500000    -0.163933900000    -1.299229947108    -0.108294873293     0.110094645641
H      0.734568800000    -0.443345300000    -0.237893500000     0.521831136834    -0.529133070361    -0.882556937474
H     -0.636434500000    -1.104077000000     0.418358200000    -1.016717110513     0.524865038793    -0.623749673808
H     -0.646588200000    -0.647683600000    -1.546209400000     0.626732153699     0.466089616108     3.260261897671
C     -0.350508100000    -0.394224500000    -0.382049200000     1.167538033289    -0.353115334710    -1.864101354097
5
Properties=species:S:1:pos:R:3:forces:R:3 energy=-1100.972462759607 pbc="F F F"
H     -0.351422100000     0.657280600000    -0.158972400000    -1.952084510889     0.801412915605     0.240501007782
H      0.719679300000    -0.377513300000    -0.271641500000     1.191346450352    -1.190215164876    -0.593513498358
H     -0.663331900000    -1.113831300000     0.360370700000    -0.913513021862     0.057952669611     0.349772900349
H     -0.630753300000    -0.683206700000    -1.516607100000     0.485012936797     0.804446817563     2.824357034945
C     -0.353845500000    -0.394501300000    -0.377459100000     1.189186723534    -0.473802926172    -2.821271710919
5
Properties=species:S:1:pos:R:3:forces:R:3 energy=-1100.957100027400 pbc="F F F"
H     -0.315696400000     0.647396500000    -0.150750400000    -2.323403257349     1.185741445039     0.279736044972
H      0.720722500000    -0.328124500000    -0.313666200000     1.239220394813    -1.659852903614    -0.270840027366
H     -0.702907600000    -1.122668900000     0.307086500000    -0.707156266628    -0.311103505897     1.152728477967
H     -0.608398700000    -0.707737200000    -1.448544800000     0.104181107925     0.897417914863     1.427476582432
C     -0.355735500000    -0.395287300000    -0.376073000000     1.687363709507    -0.112460060727    -2.589255344207
5
Properties=species:S:1:pos:R:3:forces:R:3 energy=-1100.912812408190 pbc="F F F"
H     -0.312166000000     0.653228800000    -0.138818400000    -2.398839429771     0.832677532396     0.147272800147
H      0.738378700000    -0.301688800000    -0.359437000000     0.668692560445    -1.878602377017     0.089577240872
H     -0.752123400000    -1.135277600000     0.269290300000    -0.281690083522    -0.200906016123     1.414055422921
H     -0.584961500000    -0.720271400000    -1.362082100000    -0.591302349473     0.506404516707    -1.291516637045
C     -0.355598000000    -0.396156600000    -0.377530100000     2.602522237516     0.740734876438    -0.359594515164
5
Properties=species:S:1:pos:R:3:forces:R:3 energy=-1100.761403086187 pbc="F F F"
H     -0.341879700000     0.670218400000    -0.124975500000    -2.173353665579     0.050959268487    -0.110865976647
H      0.765149900000    -0.301236400000    -0.403936100000    -0.122590207944    -1.819415577795     0.462438649345
H     -0.805035400000    -1.150194100000     0.250683000000     0.341956746152     0.328381320440     1.157870684676
H     -0.569988000000    -0.726234200000    -1.294359400000    -1.398834491062    -0.256647536849    -4.384965349074
C     -0.352413000000    -0.396138700000    -0.379292200000     3.352615930165     1.696979636053     2.875624835834
5
Properties=species:S:1:pos:R:3:forces:R:3 energy=-1100.826907150966 pbc="F F F"
H     -0.401694600000     0.687966100000    -0.112676300000    -1.661241299425    -0.704636585341    -0.361651397847
H      0.790375700000    -0.325971800000    -0.442013900000    -0.777244544073    -1.509803311844     0.787169003021
H     -0.853173500000    -1.160510900000     0.248053500000     0.955422006541     0.869341466232     0.687667303201
H     -0.573795800000    -0.734835700000    -1.284420200000    -1.541993525842    -0.255670517574    -4.551572846447
C     -0.345394000000    -0.394233600000    -0.377952700000     3.025263051067     1.600768948527     3.438593626340
5
Properties=species:S:1:pos:R:3:forces:R:3 energy=-1101.122695461279 pbc="F F F"
H     -0.484523600000     0.696178600000    -0.105331400000    -0.933927582497    -1.183016075484    -0.519619987949
H      0.805070600000    -0.371645400000    -0.469190000000    -1.128354418166    -1.024070466107     1.006638385363
H     -0.888160500000    -1.158977400000     0.255080200000     1.376465891878     1.140695714268     0.233970405262
H     -0.598150600000    -0.745852000000    -1.334430400000    -0.845121672632     0.655168556800    -1.672194199715
C     -0.334936800000    -0.390561500000    -0.372888800000     1.530989203485     0.411582224992     0.951153974973
5
Properties=species:S:1:pos:R:3:forces:R:3 energy=-1101.247388100255 pbc="F F F"
H     -0.580313100000     0.688221000000    -0.105149700000    -0.105003860999    -1.320055884280    -0.578035456164
H      0.804415400000    -0.431567400000    -0.482441300000    -1.089787867849    -0.459147637051     1.079709142699
H     -0.904197300000    -1.141884500000     0.265540300000     1.516796712968     1.056569212508    -0.084023657626
H     -0.634285300000    -0.748127800000    -1.408388700000    -0.060935149502     1.270382167470     0.942309379433
C     -0.322704000000    -0.386375100000    -0.366669900000    -0.261069834618    -0.547490748312    -1.359753720074
5
Properties=species:S:1:pos:R:3:forces:R:3 energy=-1101.196129196059 pbc="F F F"
H     -0.677603300000     0.662183100000    -0.112952900000     0.696717587009    -1.107374214794    -0.540034548584
H      0.789011600000    -0.497944300000    -0.480751600000    -0.616961960952     0.083406592821     1.000570581447
H     -0.899370600000    -1.110418700000     0.275090800000     1.332140070046     0.608528741949    -0.172006814418
H     -0.671588100000    -0.733296800000    -1.470689000000     0.469792004939     1.314810833436     2.286379369044
C     -0.310760600000    -0.382771700000    -0.361938000000    -1.881327746572    -0.899320531345    -2.575062853690
5
Properties=species:S:1:pos:R:3:forces:R:3 energy=-1101.088936743663 pbc="F F F"
H     -0.765321500000     0.621021200000    -0.128196800000     1.338824938768    -0.566105536599    -0.395898494530
H      0.765345500000    -0.563282700000    -0.465181400000     0.167481672514     0.518385858339     0.810308933212
H     -0.876277000000    -1.070801500000     0.282575500000     0.817456600537    -0.152929227527     0.030184753382
H     -0.702556100000    -0.700432100000    -1.501948400000     0.788351710564     1.023659089570     2.770466708634
C     -0.300993000000    -0.380184300000    -0.360180600000    -3.111754967913    -0.822650229314    -3.215061900698
5
Properties=species:S:1:pos:R:3:forces:R:3 energy=-1100.982978599736 pbc="F F F"
H     -0.834607600000     0.572223400000    -0.148847100000     1.711326392771     0.223634569777    -0.131897602087
H      0.743945000000    -0.621495200000    -0.438298700000     0.877414730765     0.844813140230     0.587702804777
H     -0.841988400000    -1.033474000000     0.290746200000     0.097393395069    -1.028389919743     0.444852302400
H     -0.722663700000    -0.653451700000    -1.495050600000     0.945240437257     0.536949224559     2.680786623628
C     -0.294815500000    -0.378547200000    -0.362181500000    -3.631117845527    -0.576852748621    -3.581649816986
5
Properties=species:S:1:pos:R:3:forces:R:3 energy=-1100.923654784951 pbc="F F F"
H     -0.880286200000     0.526664700000    -0.171201400000     1.781826046752     1.101769209481     0.252482349414
H      0.734206400000    -0.667886000000    -0.403163700000     1.068190599671     1.159773301159     0.379289166859
H     -0.806182500000    -1.010190700000     0.304998900000    -0.489898033171    -1.594803988744     0.724588347372
H     -0.729780100000    -0.599149300000    -1.451364700000     0.880808587193    -0.121561766602     1.919431498286
C     -0.292818300000    -0.377610100000    -0.368333200000    -3.240721512176    -0.545022489092    -3.276202738469
5
Properties=species:S:1:pos:R:3:forces:R:3 energy=-1100.881795781944 pbc="F F F"
H     -0.901257600000     0.496355100000    -0.189941000000     1.647511607512     1.818952779192     0.698825891760
H      0.738720400000    -0.697991900000    -0.362743700000     0.670646598994     1.502141423847     0.147478488415
H     -0.776706700000    -1.008417500000     0.328734700000    -0.646118272992    -1.481006954273     0.460330344594
H     -0.725064900000    -0.546745100000    -1.382086100000     0.377232284176    -0.942103691165     0.049108074071
C     -0.294554800000    -0.377355000000    -0.378178500000    -2.048912263220    -0.897932135534    -1.355845642975
5
Properties=species:S:1:pos:R:3:forces:R:3 energy=-1100.724781730761 pbc="F F F"
H     -0.899151400000     0.490965700000    -0.199006800000     1.515202628888     2.061510669657     1.044536448809
H      0.752337900000    -0.707164700000    -0.320344300000     0.023808417063     1.755343682201    -0.153340604064
H     -0.755900600000    -1.026733100000     0.358351800000    -0.483264586516    -0.822187430710    -0.267960391608
H     -0.715807100000    -0.507546800000    -1.313634200000    -0.706384935622    -1.752875422980    -2.991221642653
C     -0.298647000000    -0.378154700000    -0.389427300000    -0.348795881075    -1.241997186436     2.368294721919
5
Properties=species:S:1:pos:R:3:forces:R:3 energy=-1100.642891785659 pbc="F F F"
H     -0.875651600000     0.513624700000    -0.193803000000     1.517979420511     1.613110244628     1.088965114775
H      0.766453700000    -0.692030100000    -0.280130300000    -0.490720786244     1.777609437251    -0.484241605791
H     -0.741847300000    -1.056472700000     0.384257900000    -0.293568581020    -0.073584978006    -0.973162619687
H     -0.716079900000    -0.492324700000    -1.285796400000    -1.421717310918    -2.075806004309    -4.842210369642
C     -0.303209900000    -0.380378600000    -0.397968200000     0.687924413536    -1.241174433363     5.210598058278
5
Properties=species:S:1:pos:R:3:forces:R:3 energy=-1100.963673209808 pbc="F F F"
H     -0.830877900000     0.558202700000    -0.173768000000     1.527492502923     0.601741029093     0.782849549385
H      0.774094600000    -0.652323900000    -0.246629400000    -0.671829306537     1.525744152642    -0.759246820591
H     -0.732020200000    -1.087490300000     0.396950800000    -0.197409315560     0.472671640696    -1.335842458877
H     -0.734205700000    -0.505214400000    -1.320963900000    -0.551861624015    -1.617943918935    -2.943656230595
C     -0.307161300000    -0.384038600000    -0.400789700000    -0.106340834743    -0.981955793160     4.255793116542
5
Properties=species:S:1:pos:R:3:forces:R:3 energy=-1101.271282146209 pbc="F F F"
H     -0.765005100000     0.611063500000    -0.142997600000     1.294499116936    -0.536023627351     0.282255726260
H      0.772731400000    -0.591514900000    -0.223638600000    -0.509644106934     1.047004708029    -0.930636570204
H     -0.725061100000    -1.112216900000     0.391376800000    -0.191392933711     0.736312578669    -1.318513222267
H     -0.759590900000    -0.540315500000    -1.396034600000     0.764029072830    -0.771793804961     0.178023196267
C     -0.311277900000    -0.388829200000    -0.398745000000    -1.357336882920    -0.475242744050     1.788665181675
5
Properties=species:S:1:pos:R:3:forces:R:3 energy=-1101.298944424900 pbc="F F F"
H     -0.681412100000     0.656772500000    -0.108249000000     0.719291874462    -1.378728462830    -0.200751749921
H      0.764488400000    -0.516204100000    -0.213551900000    -0.130663472477     0.428602929199    -0.992497316913
H     -0.720870600000    -1.126992100000     0.367744100000    -0.262458230430     0.688541478342    -0.948531449551
H     -0.775066000000    -0.586324100000    -1.470132400000     1.461826523248     0.009924458948     2.124656968044
C     -0.316904400000    -0.394156600000    -0.394516000000    -1.787688162401     0.251762440475     0.016660749737
5
Properties=species:S:1:pos:R:3:forces:R:3 energy=-1101.186396227506 pbc="F F F"
H     -0.588045300000     0.683764400000    -0.076131200000    -0.110403178043    -1.720788053116    -0.532321238521
H      0.754402200000    -0.434958200000    -0.217257400000     0.237621372025    -0.249345603322    -0.964472290349
H     -0.720436800000    -1.132505100000     0.331206200000    -0.400937857104     0.317685530485    -0.256750380983
H     -0.770701000000    -0.632419700000    -1.515821200000     1.612750290159     0.602769470435     2.912083081401
C     -0.324547500000    -0.399181000000    -0.390210100000    -1.339030627036     1.049781499652    -1.158847703951
5
Properties=species:S:1:pos:R:3:forces:R:3 energy=-1101.067478660986 pbc="F F F"
H     -0.496318900000     0.687268100000    -0.051241000000    -1.021345096551    -1.540759396232    -0.670080956256
H      0.747386400000    -0.357215900000    -0.234393000000     0.394870053188    -0.935984465181    -0.868775823494
H     -0.725626300000    -1.133816600000     0.291274200000    -0.541011567859    -0.251453908072     0.595313270706
H     -0.744126500000    -0.670270700000    -1.521580200000     1.429533465115     1.022836336497     2.941547925844
C     -0.333703500000    -0.402983500000    -0.387238100000    -0.262921029034     1.705515699190    -1.998364371270
5
Properties=species:S:1:pos:R:3:forces:R:3 energy=-1101.000034968610 pbc="F F F"
H     -0.418763500000     0.669714000000    -0.035517600000    -1.821112506009    -0.915158528009    -0.622104167661
H      0.745640300000    -0.292519500000    -0.263607100000     0.335374721564    -1.565853364972    -0.695483457399
H     -0.738191900000    -1.138438300000     0.259416300000    -0.509438418665    -0.635216794769     1.220657028594
H     -0.697852000000    -0.694021600000    -1.486960700000     0.964575134483     1.241791498168     2.243441943023
C     -0.343147500000    -0.404827900000    -0.386551600000     1.030035425889     1.875054254387    -2.146974145162
5
Properties=species:S:1:pos:R:3:forces:R:3 energy=-1100.948012785037 pbc="F F F"
H     -0.366387800000     0.639693200000    -0.028331500000    -2.346594609607     0.007867576265    -0.425260494838
H      0.748501000000    -0.249545300000    -0.302444000000     0.193655504663    -2.018007600899    -0.422792235618
H     -0.757514200000    -1.151280100000     0.243958800000    -0.168407269721    -0.465626817504     1.272747582556
H     -0.638463400000    -0.700804800000    -1.422193700000     0.162956530610     1.089376491312     0.442229776978
C     -0.351398200000    -0.404534900000    -0.388249700000     2.158492688190     1.387007415632    -0.867233161481
5
Properties=species:S:1:pos:R:3:forces:R:3 energy=-1100.769385818391 pbc="F F F"
H     -0.346459100000     0.609837600000    -0.027016700000    -2.519475599165     0.969923029461    -0.159614096249
H      0.754080700000    -0.234488900000    -0.347091200000     0.052913307036    -2.179215781227    -0.055998631062
H     -0.778982500000    -1.170135700000     0.245732300000     0.348384504538     0.124955623030     0.826404040211
H     -0.577130400000    -0.693014100000    -1.352869100000    -0.897777869333     0.386642522453    -2.653275817735
C     -0.357135200000    -0.402629500000    -0.390797000000     3.015390014186     0.697694606284     2.042535926901
5
Properties=species:S:1:pos:R:3:forces:R:3 energy=-1100.608017401217 pbc="F F F"
H     -0.361440100000     0.593139700000    -0.028024900000    -2.371071513542     1.561842443739     0.028693513436
H      0.760404000000    -0.249568900000    -0.392455200000    -0.085000676901    -2.015950718215     0.366125117684
H     -0.795697800000    -1.187279600000     0.258907200000     0.764954670038     0.695329191197     0.225742874527
H     -0.527984800000    -0.679844200000    -1.319951200000    -1.625862917267    -0.292745827946    -4.957344377858
C     -0.359379000000    -0.399893600000    -0.390988900000     3.316826171470     0.051730599493     4.336680028076
5
Properties=species:S:1:pos:R:3:forces:R:3 energy=-1100.865507046269 pbc="F F F"
H     -0.409321800000     0.597377600000    -0.028912100000    -1.954295659774     1.365255881252    -0.017637769012
H      0.765534800000    -0.292555300000    -0.432715100000    -0.223840258045    -1.573772363304     0.766857286520
H     -0.802003900000    -1.195037400000     0.275389400000     0.925802895897     0.972648399016    -0.257470289922
H     -0.500648300000    -0.669478500000    -1.351516200000    -1.594238346006     0.010078725150    -3.403266666249
C     -0.357802200000    -0.397124800000    -0.386481900000     2.846262835525    -0.774056375913     2.911414594529
5
Properties=species:S:1:pos:R:3:forces:R:3 energy=-1101.208579493621 pbc="F F F"
H     -0.484234200000     0.619772600000    -0.030333900000    -1.248990587561     0.374712602888    -0.297888034655
H      0.767558900000    -0.357359700000    -0.462372300000    -0.334911922960    -0.941589470494     1.051427005799
H     -0.795677200000    -1.189594500000     0.288544900000     0.801618603874     0.889241806196    -0.502187907206
H     -0.495323000000    -0.658664400000    -1.428776000000    -1.266422668304     0.602152405630    -0.128400901525
C     -0.352907000000    -0.395194700000    -0.378703500000     2.048295198415    -0.924517344220    -0.123258694816
5
Properties=species:S:1:pos:R:3:forces:R:3 energy=-1101.269480208227 pbc="F F F"
H     -0.576342400000     0.647184200000    -0.035934000000    -0.299276430467    -0.817302334336    -0.586365831033
H      0.765027100000    -0.435259500000    -0.477516700000    -0.331980865136    -0.231707834310     1.156636555066
H     -0.778427300000    -1.172099600000     0.295005400000     0.418215671647     0.463261402418    -0.458890526715
H     -0.507751600000    -0.639976900000    -1.509297500000    -0.942000847031     0.758835444054     2.048655152885
C     -0.345611500000    -0.394259300000    -0.370956800000     1.155196737188    -0.172983833692    -2.159932506069
5
Properties=species:S:1:pos:R:3:forces:R:3 energy=-1101.135501955883 pbc="F F F"
H     -0.672602600000     0.663645800000    -0.049511100000     0.685250466048    -1.605499778699    -0.681753765486
H      0.758053100000    -0.516450200000    -0.476674600000    -0.157505791498     0.439710095691     1.082794466724
H     -0.755529600000    -1.148393200000     0.295345700000    -0.139919444553    -0.191907154382    -0.160488271389
H     -0.533381000000    -0.611037900000    -1.562553100000    -0.625703712357     0.587702804777     3.007059639317
C     -0.336960100000    -0.393510400000    -0.365658800000     0.237929904428     0.770199720881    -3.247663491233
5
Properties=species:S:1:pos:R:3:forces:R:3 energy=-1100.996198707409 pbc="F F F"
H     -0.759483000000     0.658335800000    -0.072361100000     1.487897511263    -1.788613759608    -0.542759918140
H      0.749000700000    -0.591626900000    -0.460812900000     0.121510344535     0.989874791492     0.885693683566
H     -0.734580200000    -1.127322400000     0.293500300000    -0.684376290907    -0.795807910292     0.183319669178
H     -0.567766900000    -0.574030300000    -1.574539900000    -0.305498500585     0.269657319822     3.215678965503
C     -0.328022800000    -0.391894100000    -0.364125800000    -0.619790174642     1.324683870318    -3.741983822174
5
Properties=species:S:1:pos:R:3:forces:R:3 energy=-1100.978931994521 pbc="F F F"
H     -0.825895700000     0.628650000000    -0.102570400000     1.972601915658    -1.390144161724    -0.193758348797
H      0.741584900000    -0.653112300000    -0.432607100000     0.345144914311     1.393640862286     0.635422483037
H     -0.722903900000    -1.116905900000     0.293884600000    -0.968483211582    -0.990440434230     0.248111473712
H     -0.606454100000    -0.533347900000    -1.542195100000    -0.009615926546    -0.139148113547     2.797720404192
C     -0.319802000000    -0.388794300000    -0.366922000000    -1.339647691841     1.126554645818    -3.487598856278
5
Properties=species:S:1:pos:R:3:forces:R:3 energy=-1101.047720201480 pbc="F F F"
H     -0.865173500000     0.580127700000    -0.135270400000     2.034359818234    -0.445726477540     0.347716017666
H      0.738769000000    -0.695238900000    -0.395520400000     0.374918291157     1.660778500821     0.367256403160
H     -0.724357800000    -1.119749000000     0.297277500000    -0.891452955081    -0.678874129729    -0.067928550627
H     -0.645437100000    -0.494725800000    -1.471691000000     0.137348341199    -0.642415884161     1.487331868525
C     -0.313119100000    -0.384451500000    -0.373712600000    -1.654916385173     0.106340834743    -2.134478582859
5
Properties=species:S:1:pos:R:3:forces:R:3 energy=-1100.984072769569 pbc="F F F"
H     -0.876539500000     0.525921900000    -0.162928200000     1.610899095743     0.964060913812     1.031115289298
H      0.740962500000    -0.714266000000    -0.353322100000     0.205276891825     1.789333668547     0.071990893927
H     -0.738022000000    -1.131824600000     0.299575200000    -0.579475274043    -0.130612050410    -0.507690068384
H     -0.682988800000    -0.465180000000    -1.381839000000    -0.133645952368    -1.206156005674    -1.044947825346
C     -0.308295900000    -0.380033500000    -0.382889000000    -1.102386274286    -1.416729370410     0.449428866371
5
Properties=species:S:1:pos:R:3:forces:R:3 energy=-1100.726719181446 pbc="F F F"
H     -0.865700000000     0.485276600000    -0.176202800000     0.911661827447     2.389891990097     1.653013768691
H      0.745970600000    -0.708444100000    -0.310156600000    -0.013318315376     1.738734354530    -0.252533771481
H     -0.759744200000    -1.145824700000     0.294989100000    -0.213401578425     0.341802479950    -0.764748981770
H     -0.722938300000    -0.452378000000    -1.307089400000    -0.774056375913    -1.632033565318    -3.830789732040
C     -0.304695400000    -0.377273600000    -0.391508100000     0.089628662939    -2.838755213730     3.195212982801
5
Properties=species:S:1:pos:R:3:forces:R:3 energy=-1100.716584028607 pbc="F F F"
H     -0.841683800000     0.476954400000    -0.166861400000     0.548879144124     2.844874439714     1.820752551540
H      0.750976600000    -0.678531100000    -0.270491300000    -0.080372690862     1.470002631916    -0.544868222891
H     -0.784519500000    -1.155311400000     0.280051400000     0.099450277753     0.583383351142    -0.721245913011
H     -0.772740800000    -0.461847400000    -1.282841500000    -0.603797911776    -1.569298643467    -4.086665937882
C     -0.301117000000    -0.377760300000    -0.396621600000     0.036252557299    -3.329218889639     3.532181788445
5
Properties=species:S:1:pos:R:3:forces:R:3 energy=-1101.036702583392 pbc="F F F"
H     -0.809223200000     0.506632900000    -0.132855200000     0.782900971453     1.797458355148     1.300618342920
H      0.755107600000    -0.628250300000    -0.238341400000     0.055278722122     1.017385597385    -0.742328960518
H     -0.808025500000    -1.156931700000     0.255309100000     0.305498500585     0.565539893861    -0.423614988691
H     -0.829502900000    -0.492601900000    -1.312719500000     0.737906662748    -0.941178093957    -1.826511823054
C     -0.297695800000    -0.382022200000    -0.397805900000    -1.880916370036    -2.439205752437     1.691940273478
5
Properties=species:S:1:pos:R:3:forces:R:3 energy=-1101.207450493215 pbc="F F F"
H     -0.765786800000     0.560700600000    -0.081108500000     1.043353741266     0.074561997281     0.378980634457
H      0.760033700000    -0.563807800000    -0.216484600000     0.205174047691     0.488972435963    -0.853297781299
H     -0.827421900000    -1.150904700000     0.224824400000     0.367050714892     0.313160388581     0.040006368196
H     -0.876176300000    -0.536331800000    -1.368464300000     1.940617389928    -0.127732414653     0.326941502561
C     -0.296455000000    -0.389074100000    -0.396960600000    -3.555938783441    -0.748653874770     0.107266431951
5
Properties=species:S:1:pos:R:3:forces:R:3 energy=-1101.124986387868 pbc="F F F"
H     -0.708258600000     0.616272200000    -0.023971400000     0.883893911218    -1.295373292076    -0.486812709146
H      0.767546700000    -0.492508600000    -0.206529000000     0.121407500401    -0.037023888305    -0.920403578853
H     -0.841856600000    -1.140700200000     0.195007200000     0.279633200838    -0.113694190337     0.592279368748
H     -0.896507400000    -0.582019600000    -1.420821900000     2.455557969772     0.553250019826     1.499107521889
C     -0.299243700000    -0.397014300000    -0.395909100000    -3.740132627759     0.892944195026    -0.684376290907
5
Properties=species:S:1:pos:R:3:forces:R:3 energy=-1100.983124180652 pbc="F F F"
H     -0.638778500000     0.654510700000     0.026674000000     0.359543093097    -1.985765964833    -1.080634739906
H      0.776455900000    -0.421731100000    -0.209422300000    -0.210367676467    -0.564922829056    -0.949302780557
H     -0.852445500000    -1.132106100000     0.173430100000     0.138531048742    -0.549341942728     1.092256127069
H     -0.883060900000    -0.620201700000    -1.453016300000     2.437971622827     1.027258634267     1.943805558087
C     -0.306312900000    -0.403949800000    -0.395619000000    -2.725729510265     2.072926368551    -1.006484119162
5
Properties=species:S:1:pos:R:3:forces:R:3 energy=-1100.945835874155 pbc="F F F"
H     -0.564455300000     0.665649900000     0.062525400000    -0.334089169887    -2.060225117980    -1.381608098587
H      0.782415300000    -0.358866400000    -0.225515600000    -0.547387904178    -1.091073419526    -0.897057960393
H     -0.860921800000    -1.130896300000     0.166825800000     0.141719216901    -0.723611328097     1.315736430644
H     -0.835915400000    -0.644231800000    -1.458587800000     2.029114767390     1.295733246546     1.853868362746
C     -0.316548600000    -0.408512900000    -0.396471500000    -1.289151221958     2.580050794198    -0.890835890275
5
Properties=species:S:1:pos:R:3:forces:R:3 energy=-1101.032413524727 pbc="F F F"
H     -0.494830200000     0.648561600000     0.079354300000    -1.044536448809    -1.588170542089    -1.397137562848
H      0.780997000000    -0.311200300000    -0.254027200000    -0.644884143382    -1.546518667746    -0.721657289548
H     -0.867107300000    -1.139328900000     0.178132100000     0.393944455980    -0.490206565574     1.109122565075
H     -0.760806200000    -0.650410600000    -1.438945400000     1.228524604859     1.307354633708     1.104803111439
C     -0.328310800000    -0.410117700000    -0.398305500000     0.067054375486     2.317746829969    -0.095182246184
5
Properties=species:S:1:pos:R:3:forces:R:3 energy=-1101.089534305700 pbc="F F F"
H     -0.439701300000     0.609895000000     0.076993600000    -1.640981004991    -0.542914184341    -1.086394011421
H      0.770930600000    -0.284997700000    -0.292485400000    -0.419758333660    -1.835356418593    -0.409885296778
H     -0.867650400000    -1.154329900000     0.204553000000     0.750093692649    -0.007096245258     0.549959007533
H     -0.668928800000    -0.638696800000    -1.404947000000     0.073070757336     0.969974451528    -0.575001554206
C     -0.340011200000    -0.409058500000    -0.400167700000     1.237420622465     1.415392396665     1.521167588671
5
Properties=species:S:1:pos:R:3:forces:R:3 energy=-1100.974967567691 pbc="F F F"
H     -0.407265000000     0.564287000000     0.059841000000    -1.990702483274     1.047776039036    -0.424694852100
H      0.755264700000    -0.284220500000    -0.336549700000     0.038669394452    -1.887087018086     0.015426620127
H     -0.857850800000    -1.169485800000     0.238543500000     0.973471152090     0.434567888982    -0.123104428615
H     -0.575966600000    -0.613682900000    -1.379586600000    -1.012963299615     0.416210211030    -2.644276955994
C     -0.350295500000    -0.406385000000    -0.400227300000     1.991525236347    -0.011415698894     3.176598194514
5
Properties=species:S:1:pos:R:3:forces:R:3 energy=-1100.872803779432 pbc="F F F"
H     -0.402319100000     0.533372400000     0.036870700000    -2.011374154244     2.598768426619     0.320873698645
H      0.740141100000    -0.309575800000    -0.380347200000     0.494063220605    -1.686181001964     0.482184723107
H     -0.834736600000    -1.178837100000     0.270970400000     0.927911200648     0.639176293935    -0.661493471052
H     -0.496429900000    -0.582494100000    -1.389178300000    -1.501524359042     0.130972004879    -3.007008217250
C     -0.358307400000    -0.403756900000    -0.396754000000     2.091026936167    -1.682632879335     2.865340422416
5
Properties=species:S:1:pos:R:3:forces:R:3 energy=-1100.978860156462 pbc="F F F"
H     -0.425165400000     0.537196200000     0.017712100000    -1.708703867350     2.769335423158     0.510878236544
H      0.731595100000    -0.358286100000    -0.417471500000     0.664218840608    -1.262720279474     0.881322807864
H     -0.798972700000    -1.179606200000     0.294490200000     0.587394272375     0.528567427623    -0.896749427991
H     -0.437527000000    -0.549102800000    -1.438070700000    -1.641598069797     0.139353801815    -1.123777854195
C     -0.363866700000    -0.402990700000    -0.390112600000     2.098945934499    -2.173867886250     0.627760595041
5
Properties=species:S:1:pos:R:3:forces:R:3 energy=-1101.101330985769 pbc="F F F"
H     -0.471577700000     0.577627200000     0.004893600000    -1.098375353053     1.180650660397     0.048542431333
H      0.731891300000    -0.424482800000    -0.442432500000     0.453234099335    -0.667972651505     1.127274554758
H     -0.755269100000    -1.173340000000     0.305882400000     0.004370875703     0.107626386420    -0.767217240990
H     -0.401590700000    -0.513903900000    -1.502572800000    -1.739197153134     0.055021611787     0.963238160739
C     -0.366927200000    -0.404572900000    -0.382696100000     2.379813264947    -0.674966052630    -1.372043594108
5
Properties=species:S:1:pos:R:3:forces:R:3 energy=-1101.035585011768 pbc="F F F"
H     -0.533147200000     0.634210700000    -0.007212800000    -0.301590423486    -0.775341927590    -0.414976081420
H      0.738307600000    -0.499924300000    -0.451825600000     0.048696697535     0.019797495830     1.187026996717
H     -0.711622300000    -1.165769500000     0.306855300000    -0.676971513246    -0.476168341258    -0.370136038917
H     -0.389880600000    -0.478099800000    -1.554653500000    -1.729581226588    -0.166813185642     2.185232163077
C     -0.367189300000    -0.406895500000    -0.376815300000     2.659446465785     1.398577380727    -2.587198461523
5
Properties=species:S:1:pos:R:3:forces:R:3 energy=-1100.874313739243 pbc="F F F"
H     -0.599002400000     0.680807700000    -0.024706800000     0.448349002962    -2.031840136946    -0.533761056399
H      0.745490600000    -0.575109700000    -0.444796000000    -0.290843211464     0.689261387281     1.075184000795
H     -0.677312600000    -1.164651100000     0.302585700000    -1.236443603191    -0.871192660647    -0.027253695558
H     -0.402212400000    -0.444667800000    -1.577025100000    -1.568373046260    -0.423974943161     2.630752952349
C     -0.364352600000    -0.407659600000    -0.373916200000     2.647310857952     2.637900619675    -3.145384999791
5
Properties=species:S:1:pos:R:3:forces:R:3 energy=-1100.830878380643 pbc="F F F"
H     -0.658800400000     0.699907000000    -0.049337700000     1.011420637603    -2.468464908611    -0.359748781365
H      0.748829300000    -0.640780600000    -0.422853600000    -0.439812939825     1.240145992021     0.837974005306
H     -0.659962800000    -1.175093400000     0.297459800000    -1.497462015742    -0.736981065541    -0.071733783591
H     -0.436360000000    -0.417152600000    -1.563271400000    -1.281540756029    -0.664784483346     2.442033966127
C     -0.358445200000    -0.405445300000    -0.374632500000     2.207343651926     2.630495842014    -2.848731094746
5
Properties=species:S:1:pos:R:3:forces:R:3 energy=-1100.959397212608 pbc="F F F"
H     -0.704717000000     0.685241100000    -0.078779100000     1.328643369484    -2.201173003875     0.015118087725
H      0.746221800000    -0.689297100000    -0.389262900000    -0.406234330015     1.608225148255     0.524762194658
H     -0.663213000000    -1.195290600000     0.290918500000    -1.443314579096    -0.131486225550    -0.454519651013
H     -0.488382700000    -0.398909200000    -1.516173000000    -0.937681393395    -0.873146699196     1.510111844246
C     -0.349973100000    -0.400237600000    -0.378605000000     1.458638355089     1.597683624501    -1.595575319751
5
Properties=species:S:1:pos:R:3:forces:R:3 energy=-1101.108412476868 pbc="F F F"
H     -0.732403000000     0.640567100000    -0.107813600000     1.318101845730    -1.223228131948     0.559009291341
H      0.738083800000    -0.715550200000    -0.348368800000    -0.233918983195     1.753235377450     0.172212502686
H     -0.686415600000    -1.217233800000     0.278036900000    -1.164041332727     0.562043193299    -0.823627248588
H     -0.553637200000    -0.392842000000    -1.448959100000    -0.681239544815    -1.036771716678    -0.272022734909
C     -0.339780400000    -0.393210000000    -0.384382000000     0.761098015006    -0.055073033854     0.364171079135
5
Properties=species:S:1:pos:R:3:forces:R:3 energy=-1101.119273901600 pbc="F F F"
H     -0.742138200000     0.579630400000    -0.128863400000     0.878597438308     0.476374029526     1.230015844804
H      0.726822800000    -0.717544000000    -0.305061800000     0.072402270463     1.646226055835    -0.177406131462
H     -0.725770300000    -1.231579000000     0.253959300000    -0.753796081479     1.030292536225    -0.913153067393
H     -0.628637800000    -0.401217000000    -1.385777300000    -0.570065035765    -1.129074327106    -2.170628296023
C     -0.328657800000    -0.386279000000    -0.389753400000     0.373067096741    -2.023355495876     2.031223072141
5
Properties=species:S:1:pos:R:3:forces:R:3 energy=-1101.065304199129 pbc="F F F"
H     -0.739929900000     0.525601700000    -0.132773600000     0.163830705750     2.316615544493     1.809131164377
H      0.716750900000    -0.696776400000    -0.264152600000     0.523168110579     1.291979435648    -0.452359924195
H     -0.775615300000    -1.231900100000     0.217487400000    -0.287603621237     1.154271139980    -0.669515313518
H     -0.711259900000    -0.425193400000    -1.351108100000    -0.147992709086    -1.033583548519    -2.542101308685
C     -0.317116700000    -0.381706900000    -0.392927400000    -0.250888265334    -3.728974039200     1.854896804088
5
Properties=species:S:1:pos:R:3:forces:R:3 energy=-1101.086276830679 pbc="F F F"
H     -0.734944300000     0.502431700000    -0.112021200000    -0.149381104898     2.840349297810     1.819209889527
H      0.714030900000    -0.658092600000    -0.229425300000     0.980104598745     0.790562859449    -0.601586762892
H     -0.829516400000    -1.216465600000     0.171929800000     0.153083493728     0.928939641990    -0.176583378389
H     -0.795153300000    -0.463231500000    -1.350083500000     0.899166265144    -0.600146945013    -1.324786714452
C     -0.305978300000    -0.381373200000    -0.394064800000    -1.882921830652    -3.959756276302     0.283592700004
5
Properties=species:S:1:pos:R:3:forces:R:3 energy=-1101.108337645557 pbc="F F F"
H     -0.731135300000     0.516812400000    -0.066750100000     0.260761302216     1.566264741509     1.048187415572
H      0.724594600000    -0.608296700000    -0.203037400000     1.058574673125     0.319588146967    -0.679953993137
H     -0.881403200000    -1.188344000000     0.124041200000     0.482544677577     0.430248435346     0.440121472227
H     -0.866440000000    -0.509416100000    -1.367616700000     1.976921369294     0.050187937480    -0.039954946129
C     -0.297084500000    -0.385508000000    -0.394807100000    -3.778802022211    -2.366340683370    -0.768554214734
5
Properties=species:S:1:pos:R:3:forces:R:3 energy=-1100.994157581343 pbc="F F F"
H     -0.723591900000     0.552677000000    -0.007152800000     0.765417468642    -0.137656873601    -0.032035947797
H      0.749194700000    -0.553884400000    -0.186207700000     0.489743766970    -0.039543569593    -0.781872530111
H     -0.926724000000    -1.154339300000     0.082318300000     0.650591992829    -0.188667564155     1.058111874521
H     -0.910597900000    -0.554945800000    -1.386462900000     2.600465354833     0.667047054298     0.631925782475
C     -0.292513000000    -0.392383900000    -0.396357400000    -4.506064317072    -0.300973358681    -0.876026334953
5
Properties=species:S:1:pos:R:3:forces:R:3 energy=-1100.804634359391 pbc="F F F"
H     -0.705772200000     0.587366100000     0.052243000000     0.915158528009    -1.244979666328    -0.920506422987
H      0.780215400000    -0.499984800000    -0.180339600000    -0.444800880333    -0.360108735835    -0.890167403403
H     -0.963075700000    -1.122882100000     0.055259200000     0.701448417181    -0.726028165250     1.541839259641
H     -0.918896800000    -0.591331300000    -1.397049600000     2.743367279277     1.117452939943     0.791231346321
C     -0.293108500000    -0.399671800000    -0.398895300000    -3.914916233800     1.213766471604    -0.521831136834
5
Properties=species:S:1:pos:R:3:forces:R:3 energy=-1100.718406103016 pbc="F F F"
H     -0.675514600000     0.605421400000     0.099140700000     0.740066389566    -1.667051993006    -1.475967591698
H      0.805215600000    -0.451145600000    -0.186833700000    -1.214897757080    -0.690546938958    -0.910787652307
H     -0.989577200000    -1.101276500000     0.049457600000     0.773747843510    -0.996148283677     1.739145731067
H     -0.889257500000    -0.612315000000    -1.396969400000     2.465585272854     1.353634494090     0.581635000860
C     -0.298256100000    -0.405603600000    -0.402026100000    -2.764244638516     2.000266987753     0.066128778278
5
Properties=species:S:1:pos:R:3:forces:R:3 energy=-1100.829051680299 pbc="F F F"
H     -0.635123600000     0.600756500000     0.125740300000     0.362217040585    -1.540348019695    -1.707418315672
H      0.813765200000    -0.411948200000    -0.205911400000    -1.509443357374    -0.996199705744    -0.786089139612
H     -1.005089200000    -1.093220500000     0.067544500000     0.969974451528    -0.928733953721     1.539062468018
H     -0.825593600000    -0.614638300000    -1.389207700000     1.755703636670     1.334454063065    -0.033424343609
C     -0.306653400000    -0.409246500000    -0.405046600000    -1.578297505208     2.130724771961     0.987715064674
5
Properties=species:S:1:pos:R:3:forces:R:3 energy=-1101.047683193995 pbc="F F F"
H     -0.589810700000     0.575132000000     0.128836000000    -0.146655735342    -0.878340327972    -1.582822647112
H      0.801831600000    -0.386611300000    -0.235818500000    -1.241585809900    -1.224616527760    -0.507947178720
H     -1.006932300000    -1.097873600000     0.106726800000     1.232535526092    -0.610637046699     0.950794020503
H     -0.737777700000    -0.598588000000    -1.382459500000     0.694300749856     1.053175356080    -1.086239745219
C     -0.316920100000    -0.410440600000    -0.406870100000    -0.538440464504     1.660418546352     2.225907018146
5
Properties=species:S:1:pos:R:3:forces:R:3 energy=-1101.205772639153 pbc="F F F"
H     -0.546632900000     0.537935100000     0.110287300000    -0.720320315803     0.402017720513    -1.014763071964
H      0.773134400000    -0.378288100000    -0.272683500000    -0.443926705192    -1.336356679547    -0.098627524680
H     -0.991640600000    -1.110991400000     0.158967000000     1.387933012839    -0.216692590719     0.145781560202
H     -0.640140700000    -0.567908700000    -1.390775700000    -0.280301687710     0.673886189221    -1.960569151959
C     -0.327863300000    -0.409751500000    -0.406123300000     0.057027072403     0.477145360533     2.928075344266
5
Properties=species:S:1:pos:R:3:forces:R:3 energy=-1101.234250443083 pbc="F F F"
H     -0.513441800000     0.506891400000     0.077962000000    -1.199059760416     2.077657198724    -0.106752211280
H      0.738574100000    -0.388517500000    -0.310869500000     0.638867761532    -1.309000139855     0.358926028292
H     -0.957213400000    -1.127241600000     0.213311900000     1.288328468885     0.095747888922    -0.607808833009
H     -0.545845700000    -0.527639600000    -1.424902700000    -0.799150344653     0.402171986715    -1.504455416866
C     -0.338801200000    -0.408563400000    -0.402117700000     0.071219562920    -1.266936888975     1.859781900461
5
Properties=species:S:1:pos:R:3:forces:R:3 energy=-1101.180381422740 pbc="F F F"
H     -0.496612900000     0.504068100000     0.043797800000    -1.317227670590     2.977029152136     0.503524880950
H      0.712615200000    -0.416905000000    -0.344137100000     1.420431759240    -1.130616989118     0.727005184525
H     -0.905099200000    -1.142357600000     0.259464500000     0.887184923512     0.230627970901    -1.091639062264
H     -0.462536300000    -0.481729000000    -1.478745100000    -1.128405840234     0.139662334218     0.056512851732
C     -0.349649800000    -0.408789400000    -0.396027100000     0.137965406004    -2.217011000539    -0.195095322541
5
Properties=species:S:1:pos:R:3:forces:R:3 energy=-1101.134210775617 pbc="F F F"
H     -0.497684700000     0.540555900000     0.015691200000    -0.990337590096     1.962420346374     0.330078248654
H      0.705515400000    -0.460916900000    -0.367426900000     1.351320501071    -0.773285044907     0.927037025507
H     -0.840852800000    -1.154507100000     0.290762000000     0.238804079568     0.141410684499    -1.208058622157
H     -0.395069200000    -0.433994200000    -1.532073400000    -1.472728001471    -0.226359939332     1.440126410936
C     -0.360266900000    -0.411407100000    -0.390079000000     0.872889588861    -1.104340312835    -1.489234485007
5
Properties=species:S:1:pos:R:3:forces:R:3 energy=-1101.025156248074 pbc="F F F"
H     -0.512415100000     0.603331600000    -0.008066000000    -0.479202243216    -0.067002953419    -0.090348571878
H      0.716499500000    -0.515545100000    -0.377913600000     0.582560598068    -0.238495547166     0.972031334211
H     -0.773382400000    -1.164900000000     0.305534600000    -0.510106905538    -0.133800218569    -0.993885712725
H     -0.348124400000    -0.389458200000    -1.566062100000    -1.733077927150    -0.618813155367     2.136689731744
C     -0.369802800000    -0.415219900000    -0.385807900000     2.139415101299     1.058317562789    -2.024641047553
5
Properties=species:S:1:pos:R:3:forces:R:3 energy=-1100.824218666027 pbc="F F F"
H     -0.533947600000     0.665739200000    -0.032723900000    -0.036509667634    -1.672502732118    -0.227028426204
H      0.735573300000    -0.573427600000    -0.374938200000    -0.263126717302     0.369056175508     0.886773546975
H     -0.712936900000    -1.177184200000     0.306545900000    -1.161264541104    -0.418524204049    -0.649923505957
H     -0.325255800000    -0.353511400000    -1.570829300000    -1.829957101549    -0.948017228880     2.220764811437
C     -0.376835100000    -0.417848100000    -0.383890400000     3.290292384851     2.669833723338    -2.230946380721
5
Properties=species:S:1:pos:R:3:forces:R:3 energy=-1100.686311633769 pbc="F F F"
H     -0.556163300000     0.705713700000    -0.060221900000     0.260658458082    -2.444605069481    -0.073584978006
H      0.751350600000    -0.626223000000    -0.359662400000    -0.792979696602     0.910119165434     0.699802911034
H     -0.668467400000    -1.195037700000     0.298274100000    -1.576240622525    -0.459507591521    -0.454622495147
H     -0.327814100000    -0.330715000000    -1.545173600000    -1.754829461530    -1.169029273235     1.707109783270
C     -0.380056100000    -0.417447300000    -0.384543000000     3.862979946038     3.162971346735    -1.878808065285
5
Properties=species:S:1:pos:R:3:forces:R:3 energy=-1100.713311043097 pbc="F F F"
H     -0.574901100000     0.712313700000    -0.088562900000     0.406440018283    -2.466767980397     0.246208857229
H      0.756443900000    -0.666449300000    -0.334664200000    -0.963649537276     1.300618342920     0.444955146534
H     -0.645783400000    -1.218903000000     0.283323300000    -1.745933443923    -0.150512390374    -0.513603606100
H     -0.354777600000    -0.324124500000    -1.496516500000    -1.536439942596    -1.248476366890     0.417187230305
C     -0.378792900000    -0.413433000000    -0.387312400000     3.839480061378     2.564984128540    -0.595107582438
5
Properties=species:S:1:pos:R:3:forces:R:3 energy=-1100.838095112330 pbc="F F F"
H     -0.588149700000     0.685207500000    -0.113342000000     0.373787005681    -1.755909324939     0.667098476365
H      0.748378700000    -0.688684400000    -0.303483800000    -0.838796758380     1.497976236413     0.148249819422
H     -0.647325900000    -1.244638900000     0.261070600000    -1.720325254512     0.358206119352    -0.665350126084
H     -0.403206600000    -0.334853400000    -1.442906700000    -1.276912769991    -1.192220625493    -1.568990111065
C     -0.373048200000    -0.406487300000    -0.390703200000     3.462453465470     1.091896172599     1.418786253093
5
Properties=species:S:1:pos:R:3:forces:R:3 energy=-1100.998391945122 pbc="F F F"
H     -0.596451300000     0.634467600000    -0.128690500000     0.094050960708    -0.237004307220     1.161213119037
H      0.728907000000    -0.690222500000    -0.270229500000    -0.414204750414     1.452467707038    -0.148095553221
H     -0.672763700000    -1.265413700000     0.229662300000    -1.523995802361     0.824604267863    -0.685353310182
H     -0.469580800000    -0.362228900000    -1.410565900000    -1.042993786796    -1.084388550804    -2.899021876360
C     -0.363246900000    -0.398313600000    -0.392505200000     2.887143378862    -0.955730538944     2.571103354524
5
Properties=species:S:1:pos:R:3:forces:R:3 energy=-1101.195000467767 pbc="F F F"
H     -0.603732200000     0.580979100000    -0.127814200000    -0.420066866062     1.700784869018     1.607248128980
H      0.704068600000    -0.671759000000    -0.238946300000     0.376615219371     1.118892757822    -0.355892126333
H     -0.719342400000    -1.274878600000     0.188918600000    -1.156173756462     1.091021997459    -0.487481196018
H     -0.550196400000    -0.404652200000    -1.415972000000    -0.502856394078    -0.845738737437    -1.965659936601
C     -0.350108600000    -0.391274900000    -0.391550200000     1.702378953097    -3.065115153062     1.201630863770
5
Properties=species:S:1:pos:R:3:forces:R:3 energy=-1101.311311183507 pbc="F F F"
H     -0.616725000000     0.550045800000    -0.104932100000    -0.774519174517     2.563184356192     1.619229470612
H      0.684807300000    -0.637895800000    -0.212450500000     1.397291829050     0.565334205593    -0.402120564648
H     -0.781931100000    -1.269354700000     0.141525500000    -0.635113950635     1.109688207813    -0.137502607400
H     -0.637275700000    -0.458530400000    -1.447593400000     0.490463675909    -0.299173586332     0.081709664607
C     -0.335071400000    -0.387720500000    -0.389281100000    -0.477968113606    -3.939033183265    -1.161573073507
5
Properties=species:S:1:pos:R:3:forces:R:3 energy=-1101.303299879347 pbc="F F F"
H     -0.639774900000     0.552537500000    -0.060267900000    -0.499719647985     1.451747798098     0.906365354537
H      0.684618000000    -0.596068400000    -0.191479600000     1.976561414824     0.050856424352    -0.364736721873
H     -0.853308100000    -1.248551000000     0.092276800000    -0.025505345277     0.905234069061     0.275725123739
H     -0.717537600000    -0.516446200000    -1.478978200000     1.457507069613     0.379854809597     1.446142792786
C     -0.320625400000    -0.388586400000    -0.388241700000    -2.908689224973    -2.787744523176    -2.263856503658
5
Properties=species:S:1:pos:R:3:forces:R:3 energy=-1101.165680471440 pbc="F F F"
H     -0.669395100000     0.574692200000    -0.003295800000     0.138942425278    -0.267446170938    -0.137399763266
H      0.710676200000    -0.553230800000    -0.175750700000     1.386338928759    -0.227748335144    -0.431174032554
H     -0.925067600000    -1.215256900000     0.046914700000     0.561888927098     0.539314639645     0.710447278922
H     -0.777797900000    -0.569163600000    -1.491223800000     2.086604638398     0.963135316605     1.868215119464
C     -0.309479700000    -0.392674100000    -0.389729700000    -4.173672075399    -1.007049761900    -2.010191446701
5
Properties=species:S:1:pos:R:3:forces:R:3 energy=-1100.936821830421 pbc="F F F"
H     -0.697231000000     0.593925000000     0.052001300000     0.661647737253    -1.342527327598    -0.989977635626
H      0.755146400000    -0.513441200000    -0.166196000000    -0.035995446963    -0.383042977757    -0.605186307588
H     -0.989117200000    -1.174517400000     0.011488900000     1.014557383695     0.080732645332     1.131851118729
H     -0.809249900000    -0.608599500000    -1.478037000000     2.358318840904     1.369112536284     1.646843120640
C     -0.303097100000    -0.398001100000    -0.393529000000    -3.997962872151     0.275622279605    -1.183478874087
5
Properties=species:S:1:pos:R:3:forces:R:3 energy=-1100.742428586712 pbc="F F F"
H     -0.716103300000     0.595245900000     0.093839100000     0.930379459868    -1.657898865064    -1.500290229432
H      0.799291600000    -0.479040000000    -0.165040200000    -1.337487965023    -0.550987448875    -0.720011783401
H     -1.039181900000    -1.132668200000    -0.008182300000     1.278558276138    -0.395795650395     1.469539833312
H     -0.808090000000    -0.629114100000    -1.442359500000     2.265193477403     1.554591932279     0.916701190022
C     -0.301353000000    -0.403053400000    -0.398704600000    -3.136488982184     1.050604252726    -0.165784744300
5
Properties=species:S:1:pos:R:3:forces:R:3 energy=-1100.693282918755 pbc="F F F"
H     -0.722214900000     0.574009400000     0.115040400000     0.964626556550    -1.392612420944    -1.683969853079
H      0.825446300000    -0.452359200000    -0.173784600000    -2.020784392522    -0.721708711615    -0.681753765486
H     -1.071526900000    -1.096285300000    -0.007497500000     1.385978974290    -0.805835213375     1.613573043232
H     -0.775760400000    -0.628205900000    -1.394569600000     1.695642662309     1.440383521271    -0.442692575582
C     -0.303275400000    -0.406902600000    -0.404042300000    -2.025566644761     1.480389889468     1.195048839183
5
Properties=species:S:1:pos:R:3:forces:R:3 energy=-1100.767195573930 pbc="F F F"
H     -0.715096700000     0.533893300000     0.113066800000     0.754515990419    -0.581069358122    -1.510471798716
H      0.824113300000    -0.435727500000    -0.191892500000    -2.002066760101    -0.844298919559    -0.484293027858
H     -1.084541300000    -1.071009100000     0.015415600000     1.423722771534    -1.063459769498     1.443571689431
H     -0.720286400000    -0.607524900000    -1.353797700000     0.644318500644     1.001290490386    -2.442291076462
C     -0.307567600000    -0.409049200000    -0.407924500000    -0.820284814227     1.487794667129     2.993587057739
5
Properties=species:S:1:pos:R:3:forces:R:3 energy=-1100.915483749955 pbc="F F F"
H     -0.697760700000     0.486377500000     0.090469000000     0.248471428181     0.856434527392    -0.887750566250
H      0.795590200000    -0.430827400000    -0.216607400000    -1.250533249573    -0.889241806196    -0.137039808796
H     -1.077638000000    -1.060386300000     0.058134800000     1.437658151716    -1.118121426815     0.929402440593
H     -0.655630100000    -0.572857700000    -1.346616600000    -0.251299641871     0.540754457523    -3.828012940417
C     -0.312878200000    -0.409532500000    -0.408361900000    -0.183679623647     0.610482780498     3.923298030735
5
Properties=species:S:1:pos:R:3:forces:R:3 energy=-1101.128724415966 pbc="F F F"
H     -0.677201400000     0.451347400000     0.055858300000    -0.450765840115     2.653635772204     0.058106935812
H      0.750398900000    -0.438286200000    -0.243117700000     0.205019781490    -0.854171956440     0.309715110086
H     -1.050701900000    -1.065198600000     0.113640100000     1.363507530971    -0.981955793160     0.220909200221
H     -0.593458800000    -0.530231800000    -1.389815700000    -0.349464367947     0.364171079135    -2.646539526946
C     -0.318533000000    -0.409398300000    -0.404482300000    -0.768142838198    -1.181473413471     2.058065391162
5
Properties=species:S:1:pos:R:3:forces:R:3 energy=-1101.250595778440 pbc="F F F"
H     -0.662532200000     0.452363300000     0.021587900000    -0.787528957491     3.473972008499     0.602100983562
H      0.708315700000    -0.457624300000    -0.265374300000     1.816073143435    -0.745157174208     0.682730784760
H     -1.004886300000    -1.083602700000     0.172285100000     1.107579903062    -0.709058883111    -0.451794281457
H     -0.535980400000    -0.482569600000    -1.468304600000    -0.245848902760     0.154420467473     0.019694651696
C     -0.325145400000    -0.410575100000    -0.398288300000    -1.890326608313    -2.174227840720    -0.852680716494
5
Properties=species:S:1:pos:R:3:forces:R:3 energy=-1101.286053302885 pbc="F F F"
H     -0.657943500000     0.499373000000    -0.005330100000    -0.373324207077     2.164406225905     0.297425236051
H      0.690369400000    -0.487260700000    -0.278398400000     2.346440343406    -0.514529203307     0.785677763075
H     -0.943799100000    -1.111873500000     0.224830200000     0.649974928024    -0.382065958482    -0.934236114900
H     -0.482277300000    -0.432987300000    -1.547471800000    -0.396721247603    -0.246517389632     1.987000094443
C     -0.333903700000    -0.414082400000    -0.392917900000    -2.226164128481    -1.021293674484    -2.136432621408
5
Properties=species:S:1:pos:R:3:forces:R:3 energy=-1101.220198211226 pbc="F F F"
H     -0.658361900000     0.575590300000    -0.028239700000     0.245540370357    -0.099141745350    -0.168664380057
H      0.703363600000    -0.523873000000    -0.280728200000     1.321032903554    -0.096364953728     0.630383120462
H     -0.873756300000    -1.145528400000     0.264563100000     0.068905569901    -0.081658242540    -1.187746905656
H     -0.434262100000    -0.386885900000    -1.600090400000    -0.667047054298    -0.678257064923     2.875727679968
C     -0.345114200000    -0.418712300000    -0.389936400000    -0.968277523314     0.955781961011    -2.150008047120
5
Properties=species:S:1:pos:R:3:forces:R:3 energy=-1101.011840900551 pbc="F F F"
H     -0.655706400000     0.651145600000    -0.053069500000     0.578806787170    -1.809851073317    -0.285392472352
H      0.734336400000    -0.561723700000    -0.274328900000    -0.176120579785     0.413176309072     0.385099860441
H     -0.802732000000    -1.180399300000     0.287871200000    -0.500902355528     0.159099875578    -1.261691838132
H     -0.395554500000    -0.350192000000    -1.613290400000    -0.913101645326    -1.035280476733     3.011019138483
C     -0.357393200000    -0.422290000000    -0.389458200000     1.011574903804     2.272906787466    -1.849497487043
5
Properties=species:S:1:pos:R:3:forces:R:3 energy=-1100.814307462895 pbc="F F F"
H     -0.645285000000     0.702383500000    -0.081552700000     0.620818615983    -2.648802097898    -0.106340834743
H      0.763476300000    -0.593889900000    -0.262499400000    -1.174222902011     0.841419283802     0.167018873910
H     -0.738594800000    -1.213101000000     0.293635900000    -0.964986511020     0.347870283867    -1.224770793961
H     -0.369540500000    -0.327870100000    -1.585055100000    -1.079452032363    -1.282054976700     2.493044656681
C     -0.368525800000    -0.423278000000    -0.391136200000     2.597637141143     2.741721773130    -1.329209012222
5
Properties=species:S:1:pos:R:3:forces:R:3 energy=-1100.766414335037 pbc="F F F"
H     -0.626390300000     0.717374700000    -0.111350500000     0.467375167785    -2.744858519223     0.228313977882
H      0.776931100000    -0.614463900000    -0.248267700000    -1.527852457392     1.107322792726     0.002828213690
H     -0.687827200000    -1.240990600000     0.282346100000    -1.306788990970     0.482493255510    -1.101820631548
H     -0.358516800000    -0.323326600000    -1.522975300000    -1.136941903371    -1.375951671207     1.039239975899
C     -0.376671000000    -0.421106200000    -0.394316000000     3.504156761881     2.530942720126    -0.168818646258
5
Properties=species:S:1:pos:R:3:forces:R:3 energy=-1100.792121747756 pbc="F F F"
H     -0.601142300000     0.694774100000    -0.137851700000     0.144958807128    -2.094935013266     0.651774700372
H      0.769557000000    -0.619735400000    -0.233945200000    -1.385567597753     1.195923014323    -0.116728092295
H     -0.655244300000    -1.262221900000     0.255754500000    -1.548009907692     0.531344219246    -0.867901648353
H     -0.363272200000    -0.337829600000    -1.447882500000    -1.077395149680    -1.287711404080    -1.673222641057
C     -0.380748000000    -0.416022000000    -0.397588300000     3.866116692131     1.655224917575     2.005717726864
5
Properties=species:S:1:pos:R:3:forces:R:3 energy=-1100.796915849746 pbc="F F F"
H     -0.574094700000     0.643944200000    -0.155143100000    -0.375226823559    -0.495143084014     1.145426544440
H      0.743258700000    -0.608483400000    -0.221210400000    -0.820130548026     1.089582179580    -0.193398394327
H     -0.644235100000    -1.276152600000     0.217180500000    -1.696773947785     0.461873006607    -0.489795189037
H     -0.383079200000    -0.370303600000    -1.396393600000    -0.985709604057    -1.145992187178    -4.354214952954
C     -0.380310700000    -0.409058600000    -0.398512500000     3.877738079293     0.089782929140     3.891827725676
5
Properties=species:S:1:pos:R:3:forces:R:3 energy=-1100.935312686952 pbc="F F F"
H     -0.552515100000     0.587217600000    -0.156380800000    -1.063562613632     1.906370293245     1.633884759733
H      0.706024900000    -0.582234000000    -0.211094300000     0.215098506639     0.761200859140    -0.192421375053
H     -0.656843200000    -1.283724500000     0.171877800000    -1.718782592499     0.304830013712    -0.007507621795
H     -0.416661500000    -0.418803100000    -1.401786100000    -0.844196075424    -0.946114612398    -3.778442067741
C     -0.375355400000    -0.402047600000    -0.395222900000     3.411751307319    -2.026337975767     2.344332038655
5
Properties=species:S:1:pos:R:3:forces:R:3 energy=-1101.119966431374 pbc="F F F"
H     -0.545668400000     0.556132200000    -0.135169600000    -1.597066559696     3.350713313683     1.734054946425
H      0.672246300000    -0.545534500000    -0.203545200000     1.594598300476     0.262355386296    -0.088291689194
H     -0.693279900000    -1.286967200000     0.126394500000    -1.532274755162     0.202397256068     0.409833874711
H     -0.461679200000    -0.480012500000    -1.457022100000    -0.402583363251    -0.331723754801    -0.693632262983
C     -0.366490900000    -0.397364000000    -0.389401700000     1.937634910036    -3.483587935045    -1.362221979294
5
Properties=species:S:1:pos:R:3:forces:R:3 energy=-1101.226857109500 pbc="F F F"
H     -0.560415100000     0.568494500000    -0.090701200000    -1.503375553457     2.048449464616     1.006329852961
H      0.660299400000    -0.505111500000    -0.197215200000     2.517213028213    -0.194221147401     0.023448462593
H     -0.750830000000    -1.287119400000     0.086390900000    -1.053226778147     0.311360616233     0.614082325195
H     -0.512156200000    -0.545647100000    -1.523048800000     0.192164264717     0.473185861367     1.657436066460
C     -0.355414300000    -0.396529800000    -0.384985600000    -0.152826383393    -2.638774794815    -3.301605239611
5
Properties=species:S:1:pos:R:3:forces:R:3 energy=-1101.217307001461 pbc="F F F"
H     -0.595586100000     0.608297500000    -0.032642100000    -0.884048177420    -0.350595653423    -0.145318761598
H      0.681805000000    -0.467147400000    -0.190762500000     1.975481551415    -0.443206796253    -0.029156312040
H     -0.822807100000    -1.282682500000     0.054781400000    -0.305447078517     0.606009060661     0.645655474388
H     -0.560074000000    -0.604865400000    -1.567483100000     0.685456154316     1.114161927649     2.649881961307
C     -0.344435200000    -0.398718000000    -0.384240100000    -1.471339605660    -0.926111428300    -3.121268050325
5
Properties=species:S:1:pos:R:3:forces:R:3 energy=-1101.068632695867 pbc="F F F"
H     -0.643064600000     0.644285100000     0.023686000000    -0.184142422251    -1.912026720625    -1.067727801067
H      0.729647200000    -0.435261300000    -0.184887400000     0.333266416813    -0.576904170688    -0.218543785135
H     -0.898958200000    -1.269804100000     0.032180300000     0.529441602764     0.863633616785     0.644678455113
H     -0.598577200000    -0.648747700000    -1.575782300000     1.021396518618     1.527338236721     2.781316764790
C     -0.335074300000    -0.402072300000    -0.387092400000    -1.699705005609     0.098061881942    -2.139980744037
5
Properties=species:S:1:pos:R:3:forces:R:3 energy=-1100.903676729560 pbc="F F F"
H     -0.693282400000     0.654678200000     0.065517200000     0.385305548709    -2.466253759727    -1.604574181491
H      0.782331800000    -0.411436600000    -0.182015800000    -1.204973298131    -0.688130101805    -0.366279383885
H     -0.967859900000    -1.245122500000     0.018674500000     1.227599007651     0.878288905905     0.696769009076
H     -0.622961300000    -0.671490000000    -1.545802000000     1.193197644768     1.721405117921     2.311730448120
C     -0.327684400000    -0.405366600000    -0.392453800000    -1.601077480929     0.554844103906    -1.037491625618
5
Properties=species:S:1:pos:R:3:forces:R:3 energy=-1100.870440470556 pbc="F F F"
H     -0.738298000000     0.631329500000     0.085250300000     0.785729185143    -2.318723849244    -1.813707728348
H      0.818953400000    -0.397205200000    -0.184126300000    -2.069583934191    -0.762177878415    -0.390756287821
H     -1.019893600000    -1.208499000000     0.014981800000     1.651522528745     0.588474135783     0.794933735152
H     -0.630924000000    -0.670448900000    -1.484292800000     1.108865454739     1.630645169506     1.094775808356
C     -0.322178000000    -0.408021400000    -0.399013100000    -1.476378968235     0.862193798906     0.314754472661
5
Properties=species:S:1:pos:R:3:forces:R:3 energy=-1100.935061797972 pbc="F F F"
H     -0.772552900000     0.576201500000     0.079962400000     0.969511652924    -1.558654275580    -1.688649261184
H      0.827407500000    -0.393569500000    -0.191571200000    -2.227809634628    -0.769634078143    -0.295574041636
H     -1.049161600000    -1.163934800000     0.022403800000     1.765782361820     0.042063250880     0.876283445289
H     -0.623882200000    -0.647059200000    -1.408780800000     0.581532156726     1.130359878783    -1.236700713526
C     -0.318381700000    -0.409660900000    -0.405132300000    -1.089119380976     1.156173756462     2.344691993125
5
Properties=species:S:1:pos:R:3:forces:R:3 energy=-1100.936224268384 pbc="F F F"
H     -0.793657200000     0.500133700000     0.051557900000     0.778272985414    -0.030081909248    -1.103928936298
H      0.805482800000    -0.400610900000    -0.203022500000    -1.669468830160    -0.690289828623    -0.084126501760
H     -1.054021900000    -1.118952500000     0.041984400000     1.604779869760    -0.650283460426     0.861988110638
H     -0.609150200000    -0.608182100000    -1.351400900000    -0.277884850557     0.376460953169    -4.102041135942
C     -0.315834200000    -0.409980500000    -0.408471800000    -0.435802018592     0.994245667194     4.428057041295
5
Properties=species:S:1:pos:R:3:forces:R:3 energy=-1100.941165856085 pbc="F F F"
H     -0.804550000000     0.424646700000     0.008324600000     0.021597268178     2.304531358727    -0.010438679619
H      0.761142000000    -0.417211900000    -0.215503300000    -0.290946055598    -0.520854117559     0.251813862542
H     -1.036646200000    -1.083064500000     0.073482600000     1.240248836155    -1.329003323953     0.717749212449
H     -0.597575800000    -0.563532500000    -1.348589600000    -0.541782898865     0.005553583246    -4.589882286429
C     -0.313864000000    -0.409267100000    -0.406897300000    -0.429322838138    -0.460330344594     3.630449358655
5
Properties=species:S:1:pos:R:3:forces:R:3 energy=-1100.979366832470 pbc="F F F"
H     -0.815341700000     0.381136600000    -0.035139900000    -0.833860239939     4.289525992554     0.971722801809
H      0.713470800000    -0.441050000000    -0.224400900000     1.664892266188    -0.302516020693     0.625189491686
H     -1.002006000000    -1.065513800000     0.114901400000     0.789020197436    -1.769690438919     0.456576533696
H     -0.592519900000    -0.518409800000    -1.406022200000     0.031675993328    -0.049262340273    -1.880710681767
C     -0.312525100000    -0.409131100000    -0.401377900000    -1.651985327349    -2.167748660266    -0.172521035089
5
Properties=species:S:1:pos:R:3:forces:R:3 energy=-1101.042655074085 pbc="F F F"
H     -0.836293800000     0.394659500000    -0.066314200000    -0.491852071720     3.830789732040     0.921380598127
H      0.688263600000    -0.469108000000    -0.224819000000     2.866934506496    -0.060678039167     0.762949209421
H     -0.956224800000    -1.072187800000     0.162567900000     0.411685069126    -1.739197153134     0.067054375486
H     -0.587182200000    -0.474245100000    -1.489881400000     0.523013844377    -0.288169263975     0.922871838073
C     -0.313179000000    -0.411315500000    -0.395908200000    -3.309472815876    -1.742591009562    -2.674564553510
5
Properties=species:S:1:pos:R:3:forces:R:3 energy=-1101.152882684479 pbc="F F F"
H     -0.863005300000     0.459492700000    -0.085235900000     0.766857286520     1.440897741942     0.315782914003
H      0.700655800000    -0.497891200000    -0.215070700000     2.023561184145     0.280198843576     0.479253665283
H     -0.904493300000    -1.102608900000     0.211007900000     0.184656642922    -1.197928474940    -0.459456169453
H     -0.574965700000    -0.434232100000    -1.562371300000     0.647043870200    -0.629868899791     2.460803020615
C     -0.317584200000    -0.415405100000    -0.393341300000    -3.622016139652     0.106752211280    -2.796794806984
5
Properties=species:S:1:pos:R:3:forces:R:3 energy=-1101.101326904062 pbc="F F F"
H     -0.879519000000     0.544829600000    -0.099380300000     1.635633110014    -0.772256603565    -0.032910122938
H      0.740111900000    -0.522679100000    -0.198848100000     0.097547661271     0.674554676093    -0.007044823191
H     -0.850082800000    -1.149470200000     0.252956900000     0.036201135232    -0.370393149253    -1.030292536225
H     -0.553937200000    -0.402967900000    -1.601502500000     0.550678916472    -0.916444079687     3.033593425936
C     -0.326083800000    -0.419436600000    -0.393976400000    -2.319855134720     1.384693422612    -1.963294521515
5
Properties=species:S:1:pos:R:3:forces:R:3 energy=-1100.935653917732 pbc="F F F"
H     -0.873909700000     0.620418900000    -0.113616700000     1.846720695420    -2.100488596512    -0.068391349230
H      0.781538000000    -0.538159900000    -0.182591900000    -1.382636539929     0.957581733359    -0.392864592571
H     -0.795208800000    -1.201556100000     0.280625200000    -0.143570411317     0.430299857413    -1.475453371027
H     -0.525327400000    -0.384427800000    -1.598923800000     0.337123071845    -1.108556922337     2.916711067439
C     -0.337282500000    -0.421923600000    -0.396910400000    -0.657585393953     1.821215350144    -0.980258864946
5
Properties=species:S:1:pos:R:3:forces:R:3 energy=-1100.878521435863 pbc="F F F"
H     -0.842927800000     0.667447000000    -0.128637000000     1.625965761401    -2.685363187599     0.052039131896
H      0.804580000000    -0.540432800000    -0.171611100000    -2.037805096729     1.070504592690    -0.588679824052
H     -0.742438100000    -1.247898300000     0.287934800000    -0.396978357939     0.991880252108    -1.661138455291
H     -0.492101500000    -0.381291100000    -1.556418600000     0.032653012602    -1.195460215719     1.986228763437
C     -0.349279500000    -0.422309600000    -0.400979200000     0.776627479268     1.819158467460     0.211550384010
5
Properties=species:S:1:pos:R:3:forces:R:3 energy=-1100.969012355860 pbc="F F F"
H     -0.789505200000     0.677573200000    -0.142849600000     1.111025181557    -2.647053747617     0.246208857229
H      0.799865000000    -0.527894300000    -0.168680700000    -2.010551401171     1.026795835663    -0.616344896147
H     -0.695293400000    -1.280741100000     0.272356600000    -0.706436357689     1.216903217696    -1.523481581690
H     -0.458505000000    -0.394768400000    -1.487531100000    -0.338768577992    -1.172834506200    -0.158534232840
C     -0.360388400000    -0.420578500000    -0.404733500000     1.944833999429     1.576394888726     2.051791898977
5
Properties=species:S:1:pos:R:3:forces:R:3 energy=-1101.048043744860 pbc="F F F"
H     -0.720866000000     0.651509600000    -0.153532500000     0.298505099460    -1.832991003507     0.514786313643
H      0.767693600000    -0.501151700000    -0.174209500000    -1.369009692150     0.830980604182    -0.493600422002
H     -0.658067800000    -1.296998200000     0.235857000000    -1.038417222825     1.048135993505    -1.029726893487
H     -0.429582600000    -0.424612400000    -1.422030900000    -0.643752857906    -1.101717787414    -3.151709914043
C     -0.369243600000    -0.417019000000    -0.406032600000     2.752571829286     1.055592193233     4.159736695217
5
Properties=species:S:1:pos:R:3:forces:R:3 energy=-1101.090002069426 pbc="F F F"
H     -0.648419300000     0.601103200000    -0.156852000000    -0.821570365905     0.100067342558     0.912793112923
H      0.717147800000    -0.462955100000    -0.186476600000    -0.045251419040     0.480127840424    -0.223223193240
H     -0.635365500000    -1.299071400000     0.185335600000    -1.352091832077     0.461358785936    -0.202294411934
H     -0.409381500000    -0.469846500000    -1.398422700000    -0.716000862168    -0.965192199288    -4.249365358156
C     -0.374923100000    -0.412275700000    -0.402688800000     2.934605946787    -0.077441633038     3.761781318004
5
Properties=species:S:1:pos:R:3:forces:R:3 energy=-1101.038884664438 pbc="F F F"
H     -0.587531400000     0.553059200000    -0.147292500000    -1.960312041623     2.717296291262     1.363713219240
H      0.666623300000    -0.418152400000    -0.201768800000     1.791750505701     0.032755856737     0.125212733365
H     -0.631484300000    -1.294982500000     0.132117500000    -1.563899326423    -0.361599975780     0.729113489276
H     -0.399038900000    -0.528056100000    -1.430125000000    -0.644421344778    -0.403663226660    -2.044644231652
C     -0.377225000000    -0.407713600000    -0.395301300000     2.376985051257    -1.984274724887    -0.172521035089
5
Properties=species:S:1:pos:R:3:forces:R:3 energy=-1100.887628542538 pbc="F F F"
H     -0.553333600000     0.540911500000    -0.119218400000    -2.472064453308     3.532953119451     1.318410378133
H      0.640573600000    -0.372838400000    -0.215459300000     3.061669874567    -0.375741044230     0.344682115707
H     -0.649213700000    -1.295593100000     0.088704100000    -1.525178509904    -0.867695960085     1.322318455232
H     -0.397705200000    -0.591555800000    -1.490124400000    -0.551861624015     0.454313962744     0.593513498358
C     -0.376768800000    -0.405369900000    -0.388050200000     1.488154621599    -2.743572967546    -3.578821603296
5
Properties=species:S:1:pos:R:3:forces:R:3 energy=-1100.925181071593 pbc="F F F"
H     -0.552784400000     0.574592400000    -0.073721800000    -2.180347066703     1.459409686095     0.447577671956
H      0.655111000000    -0.332684700000    -0.224657700000     2.478749322030    -0.701551261315     0.295574041636
H     -0.687853100000    -1.307343000000     0.063098900000    -1.109482519544    -0.544611112555     1.329209012222
H     -0.404094400000    -0.648913600000    -1.543303400000    -0.454005430342     1.147894803661     2.037085187789
C     -0.374489900000    -0.406021700000    -0.384707900000     1.265342804895    -1.361142115885    -4.109857290140
5
Properties=species:S:1:pos:R:3:forces:R:3 energy=-1100.961419834931 pbc="F F F"
H     -0.582333400000     0.628376000000    -0.022137400000    -1.500958716304    -1.016614266379    -0.600764009818
H      0.702836100000    -0.302295800000    -0.229849200000     0.622104167661    -0.966940549569     0.130920582812
H     -0.741657500000    -1.325986000000     0.055650600000    -0.383814308763     0.386333990051     0.947245897874
H     -0.416839300000    -0.690534800000    -1.569054100000    -0.353732399515     1.555311841219     2.522406656989
C     -0.370662700000    -0.408284700000    -0.386042300000     1.616915477593     0.041549030209    -3.000169082327
5
Properties=species:S:1:pos:R:3:forces:R:3 energy=-1100.877645773461 pbc="F F F"
H     -0.632853100000     0.669252500000     0.021452400000    -0.767782883728    -2.424961839853    -1.315479320309
H      0.759555700000    -0.285293300000    -0.233124300000    -1.054769440160    -1.103877514231     0.027716494162
H     -0.800775900000    -1.339323100000     0.061423900000     0.397801111012     1.248064990353     0.515814754985
H     -0.434536300000    -0.710665700000    -1.560197500000    -0.253973589360     1.707829692209     2.367780501248
C     -0.364966800000    -0.410590200000    -0.390883500000     1.679084756705     0.572790405321    -1.596140962489
5
Properties=species:S:1:pos:R:3:forces:R:3 energy=-1100.855831221627 pbc="F F F"
H     -0.694210200000     0.677264700000     0.047038800000    -0.105003860999    -2.884829385843    -1.670291583233
H      0.802381700000    -0.283562600000    -0.235912400000    -2.000421253954    -1.082485934322     0.007867576265
H     -0.854517800000    -1.335740400000     0.074566600000     1.019236791800     1.646380322036     0.202602944336
H     -0.455824100000    -0.707194800000    -1.518956400000    -0.186764947673     1.584211042924     1.529138009070
C     -0.357343500000    -0.412256400000    -0.397592500000     1.273107537026     0.736981065541    -0.069471212639
5
Properties=species:S:1:pos:R:3:forces:R:3 energy=-1100.988736801133 pbc="F F F"
H     -0.757169500000     0.645640500000     0.049578900000     0.441612712173    -2.668651015795    -1.721405117921
H      0.817992100000    -0.296839500000    -0.238531500000    -2.251309519288    -0.929042486124     0.040520588867
H     -0.894278300000    -1.309694800000     0.090705900000     1.390761226529     1.535102968852     0.025968143881
H     -0.479866300000    -0.681956100000    -1.457419500000    -0.242249358063     1.107579903062    -0.255927627909
C     -0.348242700000    -0.413047900000    -0.404336500000     0.661442048985     0.955319162407     1.910432636546
5
Properties=species:S:1:pos:R:3:forces:R:3 energy=-1101.171818271672 pbc="F F F"
H     -0.814176100000     0.577415200000     0.028408900000     0.780021335696    -1.773804204286    -1.425162589413
H      0.802843900000    -0.322996100000    -0.240533400000    -1.825997602383    -0.661853425522     0.118836397046
H     -0.914897100000    -1.262682900000     0.107351200000     1.472265202868     0.962569673867    -0.025453923210
H     -0.507547200000    -0.641526300000    -1.400312900000    -0.488715325628     0.383145821891    -2.660320640926
C     -0.338360300000    -0.412719900000    -0.408811900000     0.062580655649     1.090096400251     3.991895068234
5
Properties=species:S:1:pos:R:3:forces:R:3 energy=-1101.315051388516 pbc="F F F"
H     -0.860759900000     0.485363500000    -0.012182600000     0.680622480010    -0.015735152530    -0.673834767154
H      0.763078800000    -0.358299200000    -0.240781000000    -0.580195182982    -0.292180185208     0.274799526532
H     -0.915291000000    -1.202677200000     0.123807900000     1.216183308757    -0.026430942485     0.069059836103
H     -0.541939100000    -0.595427400000    -1.378805600000    -0.596393134115    -0.101867114906    -3.655491905328
C     -0.328420800000    -0.411189900000    -0.408798000000    -0.720166049602     0.436419083397     3.985107355378
5
Properties=species:S:1:pos:R:3:forces:R:3 energy=-1101.251821651380 pbc="F F F"
H     -0.898588300000     0.393941100000    -0.061783700000    -0.041394764008     2.399559338710     0.409216809906
H      0.716117000000    -0.397650800000    -0.237073100000     1.405159405314     0.110403178043     0.512318054422
H     -0.899048700000    -1.143367400000     0.141426300000     0.632594269347    -1.278918230607     0.322724893060
H     -0.583879100000    -0.550309800000    -1.405170500000    -0.075127640019    -0.239986787111    -2.021555723528
C     -0.319375500000    -0.409231800000    -0.404436900000    -1.921385536836    -0.990697544565     0.777553076475
5
Properties=species:S:1:pos:R:3:forces:R:3 energy=-1100.914387675327 pbc="F F F"
H     -0.936952900000     0.335220700000    -0.106071600000    -0.670595176927     4.017503257645     1.140644292201
H      0.688355700000    -0.435560200000    -0.226294800000     2.930389337285     0.434465044847     0.649666395621
H     -0.874047000000    -1.101739300000     0.163579300000    -0.020980203373    -2.318672427177     0.573304625992
H     -0.626561500000    -0.508659300000    -1.459212400000     0.713275492612    -0.435339219988     0.235513067274
C     -0.312571100000    -0.408364700000    -0.399172300000    -2.951678073061    -1.698162343596    -2.599745445893
5
Properties=species:S:1:pos:R:3:forces:R:3 energy=-1100.764077421205 pbc="F F F"
H     -0.983037800000     0.330058800000    -0.135387200000     0.007713310064     3.462144933068     1.074566935990
H      0.699064500000    -0.467432900000    -0.206883000000     2.391640340378     0.717234991778     0.409473920241
H     -0.848871500000    -1.091538300000     0.193296800000    -0.289969036323    -2.488056716173     0.434207934512
H     -0.659570000000    -0.473210500000    -1.511051700000     1.258143715503    -0.716000862168     1.630028104701
C     -0.309175900000    -0.409342500000    -0.396711100000    -3.367219797219    -0.974962392036    -3.549048226451
5
Properties=species:S:1:pos:R:3:forces:R:3 energy=-1100.820898332704 pbc="F F F"
H     -1.028158300000     0.371931800000    -0.149979100000     1.402691146094     1.662886805572     0.709933058251
H      0.741535400000    -0.489248800000    -0.182086900000     0.412919198737     0.996508238146    -0.118476442576
H     -0.827160800000    -1.114997500000     0.228441300000    -0.074253464879    -1.676102276814    -0.236438664482
H     -0.675323200000    -0.447716100000    -1.541028700000     1.491497055959    -0.940252496749     2.190014415316
C     -0.309686900000    -0.411452000000    -0.398230900000    -3.232853935911    -0.042783159819    -2.544466723771
5
Properties=species:S:1:pos:R:3:forces:R:3 energy=-1100.824521528753 pbc="F F F"
H     -1.054250700000     0.437328300000    -0.154472600000     2.332299274956     0.006582024588     0.457707819172
H      0.790175400000    -0.497255800000    -0.158878200000    -1.312753950753     1.153294120705    -0.596033179646
H     -0.806379500000    -1.161484400000     0.260121200000     0.245746058625    -0.473288705501    -1.043508007467
H     -0.670487500000    -0.435263800000    -1.541034500000     1.462289321852    -1.058163296588     2.129799174754
C     -0.313965200000    -0.413667400000    -0.402691500000    -2.727683548815     0.371627278863    -0.948068650947
5
Properties=species:S:1:pos:R:3:forces:R:3 energy=-1100.830051970849 pbc="F F F"
H     -1.048489100000     0.503452900000    -0.152428300000     2.578970930789    -1.118070004748     0.314600206460
H      0.821428400000    -0.489317500000    -0.143769500000    -2.207292229859     1.136221994431    -0.867233161481
H     -0.782395000000    -1.214834200000     0.277533800000     0.374249804285     0.547285060044    -1.570121396541
H     -0.645493800000    -0.437513900000    -1.512002100000     1.155351003389    -1.076469552472     1.377082956683
C     -0.321420400000    -0.415471700000    -0.408261500000    -1.901228086536     0.511135346879     0.745671394879
5
Properties=species:S:1:pos:R:3:forces:R:3 energy=-1100.941788180484 pbc="F F F"
H     -1.007188300000     0.554465200000    -0.145948300000     2.319238069915    -1.766759381095     0.201111704391
H      0.822618600000    -0.465629500000    -0.140566000000    -2.361764119399     0.977584917457    -0.930328037801
H     -0.753430600000    -1.260994000000     0.273441900000     0.279478934637     1.166098215411    -1.684638339951
H     -0.604670600000    -0.454757600000    -1.464769200000     0.558700758938    -1.025870238455    -0.285495316486
C     -0.331083100000    -0.416674100000    -0.412926700000    -0.795602222024     0.649152174950     2.699195723646
5
Properties=species:S:1:pos:R:3:forces:R:3 energy=-1101.136847831036 pbc="F F F"
H     -0.933876200000     0.581259900000    -0.136641700000     1.648231516451    -1.950387582675     0.101044361833
H      0.791524300000    -0.428376000000    -0.150155600000    -1.822192369418     0.710138746520    -0.787631801625
H     -0.720743800000    -1.291342500000     0.246238100000     0.017689191079     1.334711173401    -1.382945072331
H     -0.556117500000    -0.486348800000    -1.422174900000    -0.098010459874    -0.950022689497    -2.398222364966
C     -0.341684700000    -0.417104800000    -0.414424400000     0.253716479024     0.855406086050     4.468011987425
5
Properties=species:S:1:pos:R:3:forces:R:3 energy=-1101.381824864453 pbc="F F F"
H     -0.837979900000     0.581488800000    -0.125829400000     0.549599053063    -1.480852688072     0.082840950083
H      0.735858700000    -0.381270000000    -0.170519700000    -0.469946271140     0.364736721873    -0.429477104340
H     -0.687947100000    -1.303584100000     0.200151500000    -0.362268462652     0.998256588428    -0.666532833627
H     -0.508442800000    -0.531093900000    -1.411397800000    -0.368079156234    -0.730399040953    -3.033953380405
C     -0.352054900000    -0.416547700000    -0.410885600000     0.651054791433     0.848515529060     4.046865257954
5
Properties=species:S:1:pos:R:3:forces:R:3 energy=-1101.447201579946 pbc="F F F"
H     -0.734816300000     0.562044900000    -0.113622200000    -0.897109382461    -0.123618649286     0.259835705008
H      0.674480100000    -0.329076400000    -0.196749100000     1.572898188164     0.000771331006     0.044120133564
H     -0.660284500000    -1.302465800000     0.145116700000    -0.788660242967     0.144855962994     0.368336266569
H     -0.465553800000    -0.585578300000    -1.440248600000    -0.338254357321    -0.120019104589    -1.393023797481
C     -0.361722200000    -0.415069800000    -0.402891600000     0.451331482853     0.098113304009     0.720834536474
5
Properties=species:S:1:pos:R:3:forces:R:3 energy=-1101.100596550461 pbc="F F F"
H     -0.644074500000     0.541438400000    -0.097586000000    -2.206932275389     1.642317978736     0.575875729346
H      0.634630800000    -0.276862800000    -0.222566700000     3.146207752864    -0.367256403160     0.344836381909
H     -0.643531300000    -1.299550000000     0.095198100000    -1.093901633216    -0.875820646685     1.356668396048
H     -0.427537300000    -0.641520800000    -1.488277200000    -0.397235468274     0.676354448441     0.611922598377
C     -0.370828600000    -0.413524300000    -0.394073000000     0.552221578485    -1.075852487667    -2.889765904284
5
Properties=species:S:1:pos:R:3:forces:R:3 energy=-1100.750840170360 pbc="F F F"
H     -0.583297000000     0.542352900000    -0.073833700000    -2.748046687382     2.186980513358     0.598192906464
H      0.636451900000    -0.229944800000    -0.243962900000     2.792166820946    -0.851755119287     0.320925120712
H     -0.641696100000    -1.308115300000     0.063615600000    -1.062842704693    -1.238654752075     1.792933213244
H     -0.395215200000    -0.688233000000    -1.528814300000    -0.567236822075     1.282312087035     1.755292260134
C     -0.379186600000    -0.413152800000    -0.388443400000     1.586319347674    -1.378831306964    -4.467857721224
5
Properties=species:S:1:pos:R:3:forces:R:3 energy=-1100.689236041425 pbc="F F F"
H     -0.560112900000     0.571611300000    -0.042387600000    -2.538758874324     0.892944195026     0.074202042812
H      0.675717700000    -0.194985400000    -0.260959700000     1.051992648537    -1.350909124534     0.207179508308
H     -0.654308500000    -1.332689800000     0.056309500000    -0.671160819665    -0.512112366154     1.537982604609
H     -0.370845600000    -0.717339200000    -1.545687400000    -0.748910985106     1.589867470303     2.103522498470
C     -0.385650300000    -0.414291300000    -0.387856100000     2.907352251229    -0.618967421568    -3.923452296937
5
Properties=species:S:1:pos:R:3:forces:R:3 energy=-1100.713714587951 pbc="F F F"
H     -0.572103700000     0.612898900000    -0.010086400000    -1.988799866791    -0.855457508117    -0.617270493354
H      0.729884800000    -0.178629500000    -0.274923800000    -0.606728969601    -1.594444034275     0.193346972260
H     -0.676171300000    -1.363881500000     0.070133300000    -0.148506929757     0.691061159629     0.927448402044
H     -0.356919000000    -0.724505200000    -1.533785200000    -0.893561259831     1.614652906641     1.844149592066
C     -0.388756900000    -0.416163800000    -0.391787100000     3.637699870115     0.144136054055    -2.348240115754
5
Properties=species:S:1:pos:R:3:forces:R:3 energy=-1100.742143955614 pbc="F F F"
H     -0.611840300000     0.642953700000     0.013816600000    -1.341396042122    -2.008957317091    -1.112259311167
H      0.776317800000    -0.184241100000    -0.286087500000    -1.633267694928    -1.532069066894     0.258807263666
H     -0.700232800000    -1.385768600000     0.096951600000     0.281690083522     1.602568720875     0.307761071537
H     -0.355441000000    -0.709407700000    -1.496858400000    -0.983189922770     1.337282276755     0.884305287755
C     -0.387653500000    -0.417899200000    -0.398441700000     3.676317842500     0.601175386355    -0.339128532462
5
Properties=species:S:1:pos:R:3:forces:R:3 energy=-1100.830287893566 pbc="F F F"
H     -0.670370100000     0.645729400000     0.022478700000    -0.699442956565    -2.430155468629    -1.320004462213
H      0.800562800000    -0.211058800000    -0.293613800000    -2.065161636421    -1.252178755720     0.337740136650
H     -0.720552200000    -1.385874100000     0.128229600000     0.539366061712     1.955066990780    -0.186456415270
H     -0.367674800000    -0.675958700000    -1.448575500000    -1.027618588736     0.748602452703    -0.923951701482
C     -0.382270700000    -0.418933000000    -0.405450500000     3.253217074479     0.978973313269     2.092312487845
5
Properties=species:S:1:pos:R:3:forces:R:3 energy=-1101.020503373178 pbc="F F F"
H     -0.738776100000     0.615226300000     0.013001500000    -0.129583609068    -2.193459693812    -1.226724832511
H      0.796518300000    -0.255237800000    -0.296438300000    -1.940000325123    -0.818999262550     0.394818631121
H     -0.733538200000    -1.359240300000     0.157096400000     0.605083463454     1.752772578846    -0.505736029835
H     -0.394317500000    -0.632123600000    -1.413482500000    -1.081560337114     0.093793850373    -2.848268296142
C     -0.373088100000    -0.418831400000    -0.410021100000     2.546266496119     1.166201059545     4.185447728763
5
Properties=species:S:1:pos:R:3:forces:R:3 energy=-1101.356861955256 pbc="F F F"
H     -0.809192200000     0.554776700000    -0.013276600000     0.267908969541    -1.292545078386    -0.809794712541
H      0.766121300000    -0.310737900000    -0.293752500000    -1.103157605292    -0.259167218136     0.436316239263
H     -0.738312100000    -1.308691300000     0.179172200000     0.443206796253     1.004735768881    -0.572276184650
H     -0.436021200000    -0.586521900000    -1.415978200000    -1.042633832327    -0.208156527582    -2.892645540041
C     -0.360947700000    -0.417420800000    -0.409916800000     1.434984204227     0.755441587626     3.838348775902
5
Properties=species:S:1:pos:R:3:forces:R:3 energy=-1101.560187608541 pbc="F F F"
H     -0.876217300000     0.476926900000    -0.050589300000     0.363142637793     0.188667564155    -0.138788159077
H      0.721338800000    -0.369804700000    -0.284937600000     0.616242052012     0.346687576324     0.492674824794
H     -0.737185300000    -1.244670500000     0.193622400000     0.025196812874    -0.243586331808    -0.311926258971
H     -0.491817900000    -0.543567800000    -1.456395800000    -0.597010198920    -0.290071880457    -0.858080033539
C     -0.347195900000    -0.415158000000    -0.405575500000    -0.407365615491    -0.001439817879     0.816068204726
5
Properties=species:S:1:pos:R:3:forces:R:3 energy=-1101.290804955113 pbc="F F F"
H     -0.938444700000     0.401786600000    -0.089863100000     0.236181554147     1.706081341928     0.514426359173
H      0.685564800000    -0.424195600000    -0.269211800000     2.573005971006     0.804086863094     0.549187676526
H     -0.735874100000    -1.184252400000     0.203963600000    -0.520699851358    -1.629411039896     0.151746519984
H     -0.555615400000    -0.504840200000    -1.508967000000     0.148249819422    -0.486298488475     1.156945087469
C     -0.333946900000    -0.412857800000    -0.400284400000    -2.436377538747    -0.394098722181    -2.372305643152
5
Properties=species:S:1:pos:R:3:forces:R:3 energy=-1100.884890804990 pbc="F F F"
H     -0.997067600000     0.349574900000    -0.122319900000     0.355892126333     2.430978221702     0.852937826830
H      0.683884700000    -0.467586900000    -0.245988500000     2.934554524720     1.053792420885     0.440070050160
H     -0.741547300000    -1.145903300000     0.216120600000    -0.800898694934    -2.381355926960     0.350749919624
H     -0.617414100000    -0.473004300000    -1.546558200000     0.842396303076    -0.751687776729     2.173507931780
C     -0.323445200000    -0.410974600000    -0.397606400000    -3.331687148859    -0.351932627167    -3.817779949066
5
Properties=species:S:1:pos:R:3:forces:R:3 energy=-1100.728261794920 pbc="F F F"
H     -1.050063100000     0.330214300000    -0.143197200000     0.990080479760     2.166874485126     0.886156482170
H      0.720760400000    -0.496262400000    -0.216945400000     1.246265218005     1.250070450970     0.055998631062
H     -0.757737900000    -1.139564000000     0.232416200000    -0.511443879282    -2.034462662368    -0.074099198677
H     -0.667649900000    -0.451621200000    -1.554656500000     1.339030627036    -0.958507330567     2.366906326108
C     -0.316741900000    -0.409520100000    -0.399214700000    -3.063881023452    -0.423974943161    -3.235167928930
5
Properties=species:S:1:pos:R:3:forces:R:3 energy=-1100.705739747049 pbc="F F F"
H     -1.089022500000     0.340654000000    -0.151783600000     1.773392827749     1.422385797790     0.807686407790
H      0.774765200000    -0.507533200000    -0.187205000000    -0.784752165868     1.358725278732    -0.406594284484
H     -0.780694300000    -1.160943600000     0.247318000000     0.112768593129    -1.028492763877    -0.798996078452
H     -0.699407300000    -0.443538400000    -1.530303500000     1.595626741818    -1.061145776479     1.942211474007
C     -0.313639800000    -0.408585200000    -0.404522200000    -2.697087418896    -0.691472536166    -1.544204674727
5
Properties=species:S:1:pos:R:3:forces:R:3 energy=-1100.713884659114 pbc="F F F"
H     -1.103489200000     0.370999300000    -0.149086400000     2.279745922389     0.649100752883     0.699442956565
H      0.818710800000    -0.499987800000    -0.163010200000    -2.066498610165     1.291310948776    -0.749733738179
H     -0.802183000000    -1.196763500000     0.251310100000     0.656454108477    -0.030956084388    -1.303857933146
H     -0.709217200000    -0.450198600000    -1.479554000000     1.504918215470    -1.064385366706     0.814525542713
C     -0.313716400000    -0.408451300000    -0.411612200000    -2.374362525836    -0.845481627102     0.539931704450
5
Properties=species:S:1:pos:R:3:forces:R:3 energy=-1100.776941059720 pbc="F F F"
H     -1.086509600000     0.410587800000    -0.136666300000     2.377859226398     0.002931057824     0.531292797179
H      0.834666000000    -0.474543700000    -0.149123400000    -2.529657168449     1.062945548827    -0.926419960702
H     -0.814788000000    -1.233394900000     0.237534600000     0.940303918817     0.650849103164    -1.394103660890
H     -0.698525600000    -0.471686500000    -1.418430600000     0.939841120213    -1.004221548210    -1.167897987759
C     -0.316551100000    -0.409283500000    -0.418031900000    -1.728398519045    -0.712092785069     2.957077390105
5
Properties=species:S:1:pos:R:3:forces:R:3 energy=-1100.931044308940 pbc="F F F"
H     -1.036692100000     0.450406000000    -0.116899600000     2.073800543692    -0.475345588184     0.285649582688
H      0.816043800000    -0.434348800000    -0.147999000000    -2.246630111183     0.717543524181    -0.918243852035
H     -0.814537100000    -1.261360400000     0.204696100000     0.953365123858     0.945703235861    -1.086445433488
H     -0.674950100000    -0.507210700000    -1.373924900000     0.179000215542    -0.906416776604    -3.271934706900
C     -0.321401300000    -0.410922600000    -0.420999900000    -0.959484349841    -0.281073018717     4.991128675936
5
Properties=species:S:1:pos:R:3:forces:R:3 energy=-1101.255215727559 pbc="F F F"
H     -0.958304300000     0.483860300000    -0.093158900000     1.363147576502    -0.696151944271     0.020260294434
H      0.766958000000    -0.384181200000    -0.159465100000    -1.099249528193     0.309200889415    -0.680673902077
H     -0.801229500000    -1.276581400000     0.157044100000     0.709315993446     0.810360355279    -0.432151051828
H     -0.648100400000    -0.555153600000    -1.372848000000     0.024374059801    -0.564100075983    -3.419875993920
C     -0.327463800000    -0.412892000000    -0.418352800000    -0.997639523622     0.141462106566     4.512492075458
5
Properties=species:S:1:pos:R:3:forces:R:3 energy=-1101.504152833984 pbc="F F F"
H     -0.861259800000     0.508013000000    -0.069026400000     0.288734906713    -0.537412023163    -0.154523311607
H      0.703570200000    -0.329646800000    -0.180218100000     0.940612451219    -0.066951531352    -0.245386104156
H     -0.778263100000    -1.281003000000     0.103632300000     0.234638892134     0.210830475071     0.466655258846
H     -0.620211800000    -0.610448900000    -1.416923500000     0.424797696234     0.208722170320    -1.363764641307
C     -0.334790200000    -0.414736200000    -0.410682700000    -1.888629680099     0.184759487056     1.297173064424
5
Properties=species:S:1:pos:R:3:forces:R:3 energy=-1101.330554803589 pbc="F F F"
H     -0.760320200000     0.525035400000    -0.046878100000    -0.904257049786    -0.058569734416    -0.181777007165
H      0.653360100000    -0.275940500000    -0.204488700000     2.912905834474    -0.366639338355     0.113591346203
H     -0.752112300000    -1.282829500000     0.056756000000    -0.315525803667    -0.670646598994     1.357131194652
H     -0.586683500000    -0.662767900000    -1.480145600000     0.608323053680     1.035229054666     0.754258880083
C     -0.344291400000    -0.416379900000    -0.401491400000    -2.301034658165     0.060883727435    -2.043564368243
5
Properties=species:S:1:pos:R:3:forces:R:3 energy=-1100.994342890882 pbc="F F F"
H     -0.671700100000     0.541137600000    -0.027206100000    -1.810416716055     0.330489625191    -0.154060513003
H      0.641665500000    -0.227530500000    -0.227627700000     3.042797975945    -0.797247728171     0.109683269104
H     -0.730074700000    -1.293646800000     0.028422300000    -0.607191768204    -1.199471136953     1.853354142075
H     -0.545073000000    -0.700957200000    -1.533943200000     0.427985864394     1.563487949886     1.946170973173
C     -0.356325700000    -0.417932800000    -0.394536200000    -1.052866823678     0.103358354852    -3.755970624423
5
Properties=species:S:1:pos:R:3:forces:R:3 energy=-1100.816570361757 pbc="F F F"
H     -0.607808100000     0.561233300000    -0.009822700000    -2.195002355824     0.204042762215    -0.232016366712
H      0.670459700000    -0.190498900000    -0.249412000000     1.431178971262    -1.383510715069    -0.050342203682
H     -0.715973500000    -1.320072100000     0.025284600000    -0.437756057141    -0.757241359974     1.719348235237
H     -0.497668200000    -0.717635000000    -1.561355500000     0.068648459566     1.763571212935     2.379658998746
C     -0.369503300000    -0.419360800000    -0.391835000000     1.133753735211     0.173292366095    -3.817111462193
5
Properties=species:S:1:pos:R:3:forces:R:3 energy=-1100.769131391932 pbc="F F F"
H     -0.574152800000     0.583659800000     0.004165000000    -2.148413963040    -0.359645937231    -0.429219994004
H      0.719258800000    -0.172563900000    -0.271703600000    -0.285392472352    -1.749275878284    -0.059341065422
H     -0.707734000000    -1.356281600000     0.045689300000    -0.040006368196     0.367462091429     1.129691391911
H     -0.449363900000    -0.709939500000    -1.556095700000    -0.347613173532     1.680267464249     2.230586426251
C     -0.381404100000    -0.420605900000    -0.393527700000     2.821631665389     0.061089415703    -2.872025291138
5
Properties=species:S:1:pos:R:3:forces:R:3 energy=-1100.786360280993 pbc="F F F"
H     -0.570311300000     0.601029700000     0.012152400000    -1.861993049346    -0.949919845362    -0.619224531904
H      0.764840000000    -0.178674000000    -0.294631200000    -1.366644277064    -1.737294536652     0.096673486130
H     -0.700187300000    -1.387487300000     0.081784100000     0.257110335452     1.396263387708     0.418164249580
H     -0.405927800000    -0.679051900000    -1.520424400000    -0.762280722549     1.303446556610     1.354868623700
C     -0.390063400000    -0.421774800000    -0.398535300000     3.733910557641    -0.012392718169    -1.250893204043
5
Properties=species:S:1:pos:R:3:forces:R:3 energy=-1100.831150494503 pbc="F F F"
H     -0.592425200000     0.605428400000     0.011613200000    -1.467585794762    -1.262925967742    -0.686638861859
H      0.791975300000    -0.208782500000    -0.316122500000    -1.848520467769    -1.438532326856     0.325398840549
H     -0.689293500000    -1.399742900000     0.123828800000     0.340722616542     1.921231270635    -0.216641168652
H     -0.373080800000    -0.630264200000    -1.467003100000    -1.101100722608     0.634136931360    -0.546153774568
C     -0.394385600000    -0.422933800000    -0.404938600000     4.076432946531     0.146038670537     1.123572165927
5
Properties=species:S:1:pos:R:3:forces:R:3 energy=-1100.877017462558 pbc="F F F"
H     -0.635057500000     0.592607300000     0.001671300000    -1.042839520595    -1.177616758439    -0.572121918449
H      0.793779900000    -0.258828700000    -0.333058700000    -1.841064268040    -0.957478889225     0.553507130162
H     -0.673863800000    -1.385753900000     0.163037500000     0.219160849940     1.875414208857    -0.678051376655
H     -0.355480500000    -0.572674100000    -1.421982700000    -1.300566920852    -0.086851871316    -2.971578413025
C     -0.393957600000    -0.423915400000    -0.409991600000     3.965361281615     0.347047530794     3.668141733832
5
Properties=species:S:1:pos:R:3:forces:R:3 energy=-1101.053940996439 pbc="F F F"
H     -0.692322200000     0.563759200000    -0.016067300000    -0.641284598685    -0.699185846229    -0.276702143014
H      0.770401000000    -0.322139000000    -0.342308400000    -1.308434497117    -0.351418406496     0.726336697653
H     -0.655597500000    -1.346184900000     0.193086500000    -0.104695328596     1.237934843136    -0.846355802242
H     -0.356022200000    -0.515856500000    -1.416476100000    -1.430201951988    -0.463827045156    -3.644744693306
C     -0.388900200000    -0.424519900000    -0.410947900000     3.484873486722     0.276959253349     4.041260252641
5
Properties=species:S:1:pos:R:3:forces:R:3 energy=-1101.297566984540 pbc="F F F"
H     -0.758615700000     0.525379500000    -0.037590400000    -0.276393610611    -0.007353355594     0.092354032495
H      0.729486900000    -0.390300800000    -0.341509100000    -0.104489640328     0.309766532153     0.795859332359
H     -0.639041200000    -1.289972700000     0.211782900000    -0.633674132756     0.017586346945    -0.592896433553
H     -0.376450400000    -0.465289500000    -1.458631900000    -1.424751212876    -0.633365600353    -1.629411039896
C     -0.379797700000    -0.424789100000    -0.407474200000     2.439719973108     0.313623187185     1.334094108595
5
Properties=species:S:1:pos:R:3:forces:R:3 energy=-1101.237922075399 pbc="F F F"
H     -0.828739100000     0.486723200000    -0.057949200000     0.124544246493     0.542142853335     0.356869145608
H      0.687787700000    -0.454249000000    -0.329703900000     1.628434020621     0.862502331309     0.748859563039
H     -0.631486700000    -1.233829000000     0.222572000000    -1.257783761033    -1.438686593057    -0.027716494162
H     -0.416419400000    -0.423701600000    -1.523225200000    -1.087525296897    -0.871038394446     0.811594484889
C     -0.367910000000    -0.424629000000    -0.402474400000     0.592587901151     0.905285491128    -1.889863809709
5
Properties=species:S:1:pos:R:3:forces:R:3 energy=-1100.970578915353 pbc="F F F"
H     -0.896970500000     0.455201200000    -0.073528100000     0.643032948966     0.716669349040     0.443001107984
H      0.668253800000    -0.506428600000    -0.307508000000     2.783990712279     1.166458169880     0.614133747262
H     -0.641251400000    -1.197063900000     0.232641500000    -1.622829015308    -2.242670612017     0.251299641871
H     -0.471351700000    -0.394288700000    -1.577687000000    -0.521728292700    -1.092307549136     2.264679256732
C     -0.355331000000    -0.423406200000    -0.399539600000    -1.282003554633     1.452364862904    -3.572702377312
5
Properties=species:S:1:pos:R:3:forces:R:3 energy=-1100.868703295672 pbc="F F F"
H     -0.956144000000     0.433388300000    -0.083025000000     1.205178986400     0.613465260389     0.428242974730
H      0.685466400000    -0.542426800000    -0.276847600000     2.131650369169     1.333528465857     0.362936949525
H     -0.672978800000    -1.190187900000     0.245245200000    -1.359342343537    -1.808051300968    -0.253665056957
H     -0.533547500000    -0.380032500000    -1.601496200000     0.086286228578    -1.197465676336     2.798954533802
C     -0.344144300000    -0.420574200000    -0.400614300000    -2.063927506811     1.058986049661    -3.336932199703
5
Properties=species:S:1:pos:R:3:forces:R:3 energy=-1100.918087879598 pbc="F F F"
H     -0.998582700000     0.420098600000    -0.086521900000     1.648282938518     0.446549230614     0.412816354602
H      0.731134100000    -0.559800600000    -0.241262100000     0.305858455054     1.444291598370    -0.015940840798
H     -0.723126200000    -1.207835400000     0.253889900000    -0.581017936055    -0.690958315495    -1.102591962554
H     -0.594609700000    -0.382395800000    -1.586885000000     0.628171971577    -1.173657259273     2.646230994543
C     -0.335300900000    -0.416566500000    -0.405501300000    -2.001295429094    -0.026019565948    -1.940720234062
5
Properties=species:S:1:pos:R:3:forces:R:3 energy=-1100.957017032672 pbc="F F F"
H     -1.018210200000     0.413144100000    -0.084199000000     1.861581672810     0.345813401183     0.428551507132
H      0.781396700000    -0.557136500000    -0.205917700000    -1.311108444606     1.399245867599    -0.413381997340
H     -0.781327400000    -1.235335300000     0.247510200000     0.281535817320     0.306938318463    -1.623394658046
H     -0.647079900000    -0.401063100000    -1.536042800000     0.986892311601    -1.036514606343     1.767839244504
C     -0.328804500000    -0.412576800000    -0.412638000000    -1.818798512990    -1.015071604366    -0.159716940383
5
Properties=species:S:1:pos:R:3:forces:R:3 energy=-1100.965696104245 pbc="F F F"
H     -1.012079400000     0.411152300000    -0.075868300000     1.809079742310     0.347098952861     0.448760379499
H      0.814174800000    -0.535101100000    -0.176268100000    -2.194488135153     1.164401287197    -0.733330098777
H     -0.835820900000    -1.259029100000     0.219025400000     0.951205397040     0.892275708154    -1.612853134293
H     -0.686171700000    -0.434154400000    -1.461525700000     0.965243621355    -0.823524404454    -0.026070988015
C     -0.324437900000    -0.409738800000    -0.419932900000    -1.530680671082    -1.580560076160     1.923236731251
5
Properties=species:S:1:pos:R:3:forces:R:3 energy=-1100.955894562999 pbc="F F F"
H     -0.980914000000     0.414118700000    -0.061308200000     1.499416054291     0.429837058809     0.421712372209
H      0.817078300000    -0.496937300000    -0.156740100000    -2.330653768809     0.775599037926    -0.924363078018
H     -0.877319100000    -1.270713000000     0.168497300000     1.339750535975     1.056106413904    -1.133753735211
H     -0.712316800000    -0.478777300000    -1.388153900000     0.493806110270    -0.605340573789    -2.409689485927
C     -0.321843500000    -0.408711800000    -0.424953300000    -1.002164665526    -1.655687716179     4.045836816612
5
Properties=species:S:1:pos:R:3:forces:R:3 energy=-1101.017968904684 pbc="F F F"
H     -0.929008800000     0.423137000000    -0.040943100000     0.969460230857     0.538954685175     0.309663688019
H      0.788263600000    -0.448038700000    -0.149930500000    -1.663195337975     0.279941733241    -0.919118027175
H     -0.900427900000    -1.268086500000     0.102519800000     1.403359632966     0.804292551362    -0.288374952243
H     -0.731379800000    -0.531816100000    -1.347269100000     0.184245266385    -0.310383596958    -3.713393152872
C     -0.320466000000    -0.409589600000    -0.425367100000    -0.894229746703    -1.312239730082     4.611582398741
5
Properties=species:S:1:pos:R:3:forces:R:3 energy=-1101.149695959061 pbc="F F F"
H     -0.863689000000     0.439640300000    -0.016342400000     0.304058682706     0.592690745285     0.110814554580
H      0.737262500000    -0.395241500000    -0.155687600000    -0.062837765985    -0.229702373693    -0.658510991161
H     -0.904319400000    -1.254698600000     0.032753900000     1.091999016733     0.126035486439     0.769531234009
H     -0.746816200000    -0.588752500000    -1.355533800000     0.685353310182     0.339745597267    -2.735859657482
C     -0.320270500000    -0.411999800000    -0.420635300000    -2.018521821570    -0.828563767029     2.513870593852
5
Properties=species:S:1:pos:R:3:forces:R:3 energy=-1101.074520151347 pbc="F F F"
H     -0.794094800000     0.464253400000     0.009734200000    -0.347510329397     0.483778807187    -0.152723539259
H      0.686077600000    -0.345495900000    -0.170485900000     2.060379384181    -0.604466398649    -0.260607036015
H     -0.893320400000    -1.239930400000    -0.026285200000     0.449737398773    -0.865690499468     1.779563475800
H     -0.752434100000    -0.640708100000    -1.401078800000     1.390658382395     1.168823584967    -0.836945563965
C     -0.322493900000    -0.415368700000    -0.413038200000    -3.553419102153    -0.181777007165    -0.529493024831
5
Properties=species:S:1:pos:R:3:forces:R:3 energy=-1100.860080551668 pbc="F F F"
H     -0.729182200000     0.495370700000     0.033645200000    -0.844504607827     0.148764040093    -0.438064589544
H      0.662477800000    -0.304053200000    -0.189226000000     3.104710144722    -0.856177417057    -0.100838673564
H     -0.876020700000    -1.237116700000    -0.060859500000    -0.174372229504    -1.689112059788     2.397502456027
H     -0.739140900000    -0.676621600000    -1.458924400000     1.650339821202     1.741254035818     0.632388581079
C     -0.328758700000    -0.418929400000    -0.405949800000    -3.736275972727     0.655271400934    -2.490576397460
5
Properties=species:S:1:pos:R:3:forces:R:3 energy=-1100.833991091090 pbc="F F F"
H     -0.675849900000     0.528387900000     0.051467400000    -1.132468183534    -0.339334220730    -0.683707804035
H      0.679716500000    -0.274706500000    -0.209812200000     2.029628988061    -1.175765564024    -0.281227284918
H     -0.860488800000    -1.256840300000    -0.062648500000    -0.248831382651    -1.585496594601     2.350965485310
H     -0.703249600000    -0.688596600000    -1.508593400000     1.470362586385     1.936297936292     1.521681809342
C     -0.339230200000    -0.421751100000    -0.401635100000    -2.118589164128     1.164504131331    -2.907866471900
5
Properties=species:S:1:pos:R:3:forces:R:3 energy=-1100.963727088352 pbc="F F F"
H     -0.638154400000     0.556684400000     0.059832000000    -1.230170111006    -0.801464337672    -0.828563767029
H      0.724419700000    -0.261772500000    -0.234263600000     0.108037762957    -1.446348481054    -0.416364477232
H     -0.847769800000    -1.297510600000    -0.032262000000     0.222863238770    -0.453799742073     1.676205120948
H     -0.647081900000    -0.673825300000    -1.537467000000     1.013117565817     1.809593962981     1.953421484633
C     -0.352161600000    -0.423284800000    -0.400650400000    -0.113488502069     0.892070019886    -2.385058315791
5
Properties=species:S:1:pos:R:3:forces:R:3 energy=-1101.078522674118 pbc="F F F"
H     -0.617524900000     0.573995000000     0.056764900000    -1.188415392528    -1.062019951620    -0.825272754735
H      0.771288700000    -0.268774600000    -0.264240700000    -1.314965099638    -1.456324362070    -0.302001800022
H     -0.831950500000    -1.344287900000     0.021256600000     0.696460476673     0.907342373812     0.704019520536
H     -0.576938200000    -0.634027400000    -1.539588400000     0.372450031936     1.409993079621     1.853868362746
C     -0.365275500000    -0.423810200000    -0.402431600000     1.434881360093     0.201060282324    -1.430819016793
5
Properties=species:S:1:pos:R:3:forces:R:3 energy=-1101.138849772706 pbc="F F F"
H     -0.613444400000     0.576794100000     0.042347600000    -1.064231100505    -1.013374676152    -0.643855702040
H      0.800635400000    -0.295872100000    -0.298231700000    -1.980263803654    -1.210835413780    -0.001234129610
H     -0.806774400000    -1.378897200000     0.084673300000     0.846407224309     1.832116828367    -0.243277799405
H     -0.501697200000    -0.574746400000    -1.516632400000    -0.365456630812     0.789123041571     0.997485257421
C     -0.376741600000    -0.424087400000    -0.405860200000     2.564109953400    -0.396824091737    -0.109529002903
5
Properties=species:S:1:pos:R:3:forces:R:3 energy=-1101.135826859832 pbc="F F F"
H     -0.624228900000     0.565799300000     0.019128500000    -0.905799711799    -0.626937841967    -0.280610220113
H      0.802981900000    -0.339735400000    -0.332138300000    -2.007157544743    -0.798996078452     0.388390872734
H     -0.770123900000    -1.388557300000     0.144916800000     0.670749443128     2.151396442932    -0.991057499035
H     -0.431498700000    -0.504505700000    -1.480634600000    -1.035897541538     0.096262109593    -0.611305533572
C     -0.385231300000    -0.424813700000    -0.409385900000     3.278362465287    -0.821416099703     1.494119581381
5
Properties=species:S:1:pos:R:3:forces:R:3 energy=-1101.084282780311 pbc="F F F"
H     -0.647689100000     0.546312700000    -0.007879000000    -0.736826799339    -0.003085324025     0.198540601036
H      0.777884900000    -0.394681700000    -0.360600700000    -1.453650414581    -0.295162665099     0.781101199104
H     -0.724381900000    -1.368791900000     0.191647600000     0.231399301907     1.858547770851    -1.418786253093
H     -0.375522500000    -0.432726300000    -1.453088200000    -1.474836306222    -0.445263678936    -2.084959132251
C     -0.389920300000    -0.426496200000    -0.411206500000     3.433914218235    -1.114830414522     2.523640786600
5
Properties=species:S:1:pos:R:3:forces:R:3 energy=-1101.038750240191 pbc="F F F"
H     -0.681418400000     0.526717200000    -0.032171500000    -0.521779714767     0.557466629328     0.618864577434
H      0.733133200000    -0.453734600000    -0.378241400000    -0.298659365662     0.230216594364     1.071995832635
H     -0.675673300000    -1.323770900000     0.219070800000    -0.444338081729     0.899063421010    -1.359856564208
H     -0.339973700000    -0.366987400000    -1.452955700000    -1.718319793896    -0.830569227645    -2.114012600157
C     -0.390629700000    -0.429438200000    -0.410240600000     2.983148378120    -0.855868884654     1.782905910161
5
Properties=species:S:1:pos:R:3:forces:R:3 energy=-1100.918536595354 pbc="F F F"
H     -0.722298600000     0.514414300000    -0.048096500000    -0.176223423919     0.692398133373     0.791694144925
H      0.684757600000    -0.509651200000    -0.381112600000     1.304012199347     0.679902571070     1.158590593616
H     -0.633406400000    -1.266940700000     0.228196400000    -1.300104122249    -0.706642045957    -0.678102798722
H     -0.328331100000    -0.312902300000    -1.480863100000    -1.816073143435    -1.218034503172    -0.848618373194
C     -0.387885200000    -0.433268800000    -0.407326400000     1.988594178523     0.552478688820    -0.424077787295
5
Properties=species:S:1:pos:R:3:forces:R:3 energy=-1100.692580592882 pbc="F F F"
H     -0.765480900000     0.511248700000    -0.053242600000     0.302516020693     0.365610897013     0.707361954897
H      0.654285100000    -0.556226600000    -0.368008000000     2.567092433291     0.982727124166     1.035023366397
H     -0.609289600000    -1.220109000000     0.228212700000    -2.091438312704    -2.346646031674     0.283901232407
H     -0.341851100000    -0.275816700000    -1.520558700000    -1.688649261184    -1.552689315797     0.544559690488
C     -0.382812900000    -0.436383800000    -0.404904500000     0.910119165434     2.551511546963    -2.571103354524
5
Properties=species:S:1:pos:R:3:forces:R:3 energy=-1100.647460577373 pbc="F F F"
H     -0.804441600000     0.513037200000    -0.048613800000     0.767988571996    -0.108140607091     0.507278691848
H      0.658021500000    -0.589142400000    -0.340565100000     2.401924753796     1.196385812927     0.772102337364
H     -0.613827700000    -1.204592300000     0.231245000000    -2.346543187540    -2.704852151026     0.456113735093
H     -0.378752600000    -0.260255600000    -1.553207100000    -1.336665211950    -1.703355972372     1.463883405932
C     -0.376597800000    -0.436624100000    -0.405353300000     0.513346495764     3.320271449965    -3.199635280571
5
Properties=species:S:1:pos:R:3:forces:R:3 energy=-1100.881502443202 pbc="F F F"
H     -0.832838100000     0.513479500000    -0.036871900000     1.072870007776    -0.447269139553     0.310177908690
H      0.693811000000    -0.605364400000    -0.302445900000     0.929916661264     1.349160774253     0.393738767712
H     -0.650278200000    -1.224978200000     0.239261400000    -1.818130026118    -1.458021290283    -0.490720786244
H     -0.434208300000    -0.268284900000    -1.565996500000    -0.843116212016    -1.629205351628     1.829134348475
C     -0.369723300000    -0.433156500000    -0.409383000000     0.659025211832     2.185489273413    -2.042690193102
5
Properties=species:S:1:pos:R:3:forces:R:3 energy=-1101.117399581331 pbc="F F F"
H     -0.846457300000     0.507932800000    -0.020725500000     1.165892527142    -0.553147175692     0.163676439549
H      0.742482500000    -0.602892600000    -0.258904100000    -0.699237268296     1.335482504407    -0.060472350898
H     -0.711659300000    -1.265387600000     0.240364400000    -0.834014506141     0.167275984245    -1.509751889777
H     -0.501421400000    -0.298892200000    -1.553821500000    -0.308686668744    -1.351526189339     1.630388059171
C     -0.362090000000    -0.427177700000    -0.415754400000     0.675737383636     0.402429097050    -0.222606128435
5
Properties=species:S:1:pos:R:3:forces:R:3 energy=-1101.224158284234 pbc="F F F"
H     -0.843988600000     0.494921000000    -0.002216500000     1.051272739598    -0.418267093714     0.078881450917
H      0.782045100000    -0.581970900000    -0.216191000000    -1.769279062382     1.110459538819    -0.501467998266
H     -0.784726800000    -1.304100400000     0.221097000000     0.158945609377     1.279381029211    -1.896548678431
H     -0.573051300000    -0.348250900000    -1.519489000000     0.145164495396    -0.924620188354     0.862913707845
C     -0.353690400000    -0.420689000000    -0.422404300000     0.413741951810    -1.046799019761     1.456015829667
5
Properties=species:S:1:pos:R:3:forces:R:3 energy=-1101.250619724459 pbc="F F F"
H     -0.827020600000     0.476293100000     0.017465900000     0.745774239013    -0.077955853709     0.052913307036
H      0.797641100000    -0.545693000000    -0.180394800000    -2.141214873648     0.716669349040    -0.850932366213
H     -0.855811400000    -1.325630100000     0.176006700000     0.946937365471     1.764239699807    -1.651882483215
H     -0.642849000000    -0.410486800000    -1.473488100000     0.435699174458    -0.433745135908    -0.242197935996
C     -0.344816200000    -0.415379700000    -0.427383000000     0.012701250571    -1.969002370962     2.691996634254
5
Properties=species:S:1:pos:R:3:forces:R:3 energy=-1101.243952118542 pbc="F F F"
H     -0.799777700000     0.456704100000     0.037926500000     0.297579502253     0.370804525789     0.056769962068
H      0.784086100000    -0.499515400000    -0.156321000000    -1.785117059046     0.205636846295    -1.031680932036
H     -0.913953500000    -1.323072900000     0.108317000000     1.458432666820     1.709269510088    -0.943132132507
H     -0.706629700000    -0.478783400000    -1.430589000000     0.662779022729     0.076464613764    -1.103106183225
C     -0.335949100000    -0.412335000000    -0.429284100000    -0.633622710689    -2.362072651801     3.021252129834
5
Properties=species:S:1:pos:R:3:forces:R:3 energy=-1101.173368232219 pbc="F F F"
H     -0.768409200000     0.442228800000     0.059135000000    -0.184142422251     0.749476627844     0.019283275159
H      0.746489200000    -0.450515000000    -0.146397000000    -0.608837274351    -0.350492809289    -0.957890265761
H     -0.952072100000    -1.297163200000     0.027794700000     1.620463600222     1.146352141648     0.089268708469
H     -0.760940000000    -0.545921900000    -1.402315000000     1.036154651873     0.657688238087    -1.294756227271
C     -0.327886300000    -0.412015400000    -0.427753700000    -1.863381445158    -2.202972776223     2.143888821136
5
Properties=species:S:1:pos:R:3:forces:R:3 energy=-1100.945640496403 pbc="F F F"
H     -0.739480900000     0.437932600000     0.080463200000    -0.549033410325     0.861422467900    -0.142696236176
H      0.701204200000    -0.406316900000    -0.149570300000     1.241328699564    -0.813857055841    -0.627297796437
H     -0.968037400000    -1.255798200000    -0.051284800000     1.318101845730     0.071168140853     1.283289106310
H     -0.800606200000    -0.603783000000    -1.391658900000     1.512940057936     1.287042917208    -1.048598792109
C     -0.322063100000    -0.414224500000    -0.423775100000    -3.523337192906    -1.405622203918     0.534943763942
5
Properties=species:S:1:pos:R:3:forces:R:3 energy=-1100.620853012005 pbc="F F F"
H     -0.717985600000     0.445305800000     0.099640700000    -0.699391534498     0.643392903436    -0.430197013279
H      0.672910500000    -0.373254600000    -0.161537500000     2.712668305224    -1.064539632907    -0.313468920984
H     -0.966134800000    -1.213894800000    -0.112493100000     0.529904401367    -1.373431989920     2.383001433107
H     -0.819267900000    -0.643769600000    -1.395662500000     1.841887021114     1.791082018829    -0.759401086792
C     -0.320307400000    -0.418024700000    -0.419147200000    -4.384862504939     0.003548122629    -0.879985834119
5
Properties=species:S:1:pos:R:3:forces:R:3 energy=-1100.495228927284 pbc="F F F"
H     -0.706048400000     0.461448900000     0.112773300000    -0.649152174950     0.221371998825    -0.734564228388
H      0.680406700000    -0.354935500000    -0.178337600000     2.401770487595    -1.171034733852    -0.347047530794
H     -0.956875900000    -1.190930100000    -0.140876200000    -0.279067558100    -2.531405518730     3.009733586806
H     -0.812469200000    -0.658995200000    -1.410341600000     1.890069497978     2.023355495876    -0.497919875637
C     -0.323510700000    -0.421812100000    -0.415466000000    -3.362951765650     1.458021290283    -1.430047685786
5
Properties=species:S:1:pos:R:3:forces:R:3 energy=-1100.723057617343 pbc="F F F"
H     -0.703063900000     0.480691700000     0.115756300000    -0.479716463887    -0.203939918081    -0.923591747012
H      0.719828200000    -0.352923800000    -0.200185400000     0.674348987825    -1.187181262918    -0.538800418974
H     -0.950488700000    -1.201834900000    -0.128097400000    -0.249499869523    -2.385109737858     2.805587980457
H     -0.779517000000    -0.646256100000    -1.431922700000     1.666280662000     1.937943442439    -0.184399532586
C     -0.330598100000    -0.423994100000    -0.413385500000    -1.610899095743     1.838390320552    -1.158693437750
5
Properties=species:S:1:pos:R:3:forces:R:3 energy=-1101.096799745769 pbc="F F F"
H     -0.706762900000     0.497259800000     0.106033900000    -0.279273246368    -0.476116919191    -0.917935319632
H      0.768811500000    -0.367333800000    -0.229332700000    -1.010495040395    -1.035074788464    -0.540034548584
H     -0.946623500000    -1.244551700000    -0.076997500000     0.566105536599    -0.936858640321     1.792059038103
H     -0.723501500000    -0.606728400000    -1.456073100000     1.209035641431     1.552895004065     0.135651412985
C     -0.339652000000    -0.424150300000    -0.412627200000    -0.485321469200     0.895103921844    -0.469843427006
5
Properties=species:S:1:pos:R:3:forces:R:3 energy=-1101.335778845478 pbc="F F F"
H     -0.714415900000     0.507434100000     0.083704400000    -0.114928319947    -0.515043423978    -0.700728508242
H      0.804509300000    -0.396051400000    -0.265759600000    -1.979698160916    -0.723457061896    -0.301693267620
H     -0.935016900000    -1.300220900000    -0.001185500000     1.259737799583     0.690289828623     0.444903724467
H     -0.650752100000    -0.545708900000    -1.478474100000     0.585183123490     0.950896864637     0.332752196143
C     -0.349313300000    -0.423285000000    -0.412421400000     0.249756979858    -0.402480519117     0.224508744917
5
Properties=species:S:1:pos:R:3:forces:R:3 energy=-1101.377374170155 pbc="F F F"
H     -0.723761500000     0.510675400000     0.051766200000    -0.019540385494    -0.317325576015    -0.308686668744
H      0.813332800000    -0.434810600000    -0.306239800000    -2.215108384057    -0.332957884411     0.086234806511
H     -0.906424200000    -1.346916600000     0.081047600000     1.411741429902     1.754418084993    -0.755030211090
H     -0.569861700000    -0.471463300000    -1.496391600000    -0.086491916846     0.269965852225     0.384997016306
C     -0.358685500000    -0.422858600000    -0.411984200000     0.909553522696    -1.373946210591     0.592176524614
5
Properties=species:S:1:pos:R:3:forces:R:3 energy=-1101.298812993906 pbc="F F F"
H     -0.733444700000     0.509645500000     0.015602100000     0.023962683264     0.023139930191     0.165116257428
H      0.791903400000    -0.478226200000    -0.345445300000    -1.780489073008     0.063763363192     0.531652751648
H     -0.858588600000    -1.369808700000     0.153129800000     1.107734169263     2.161423746014    -1.596295228690
H     -0.490115300000    -0.393394000000    -1.508966000000    -0.704533741207    -0.377129440042     0.392247527766
C     -0.367008400000    -0.424002300000    -0.410895900000     1.353685916157    -1.870837644886     0.507021581512
5
Properties=species:S:1:pos:R:3:forces:R:3 energy=-1101.160498607199 pbc="F F F"
H     -0.742775800000     0.508878300000    -0.018317200000     0.082480995613     0.310383596958     0.582509176001
H      0.746328400000    -0.520810800000    -0.377251600000    -0.668178339774     0.407262771357     0.936087309315
H     -0.795601600000    -1.363115000000     0.203350200000     0.485989956072     1.970956409511    -2.008751628823
H     -0.420120100000    -0.320508100000    -1.516028400000    -1.222765333345    -0.939943964347     0.410039562979
C     -0.373786000000    -0.427287100000    -0.409244700000     1.322884097970    -1.748298859009     0.079652781923
5
Properties=species:S:1:pos:R:3:forces:R:3 energy=-1100.962137943408 pbc="F F F"
H     -0.750859600000     0.512161400000    -0.044270300000     0.218543785135     0.353629555381     0.837614050837
H      0.692073500000    -0.557813500000    -0.396124500000     0.997690945690     0.649306441151     1.190677963480
H     -0.726098300000    -1.329556700000     0.226058400000    -0.386128301782     1.137353279907    -1.881173480371
H     -0.367086200000    -0.260655000000    -1.517378000000    -1.599740507185    -1.390041317590     0.403457538392
C     -0.379061900000    -0.432542200000    -0.407518300000     0.769736922277    -0.750042270582    -0.550884604740
5
Properties=species:S:1:pos:R:3:forces:R:3 energy=-1100.704881772048 pbc="F F F"
H     -0.755814100000     0.520084700000    -0.058697000000     0.409371076107     0.137451185333     0.919632247846
H      0.651643100000    -0.585824200000    -0.398570900000     2.499780947470     0.810925998017     1.236854979727
H     -0.662201200000    -1.280949700000     0.223253500000    -1.419300473764    -0.435596330323    -1.050347142390
H     -0.336234400000    -0.220103100000    -1.513145600000    -1.787585318266    -1.697339590523     0.338357201455
C     -0.383427600000    -0.438584900000    -0.406465800000     0.298247989125     1.184558737496    -1.444651552840
5
Properties=species:S:1:pos:R:3:forces:R:3 energy=-1100.506560836880 pbc="F F F"
H     -0.755098600000     0.529816600000    -0.060379800000     0.547747858648    -0.179822968615     0.883019736078
H      0.644617600000    -0.602441900000    -0.383902300000     2.679038273347     0.995222686469     1.104340312835
H     -0.618046400000    -1.238913400000     0.206356600000    -2.321192108464    -2.342069467703     0.250374044664
H     -0.330174600000    -0.203115100000    -1.504278600000    -1.768147776906    -1.826100446517     0.180594299622
C     -0.387334500000    -0.443205200000    -0.407127300000     0.862759441644     3.353490105306    -2.419048302137
5
Properties=species:S:1:pos:R:3:forces:R:3 energy=-1100.581242757938 pbc="F F F"
H     -0.746881000000     0.537118500000    -0.049784000000     0.545845242165    -0.426083247912     0.768862747137
H      0.673333800000    -0.605128800000    -0.353948800000     1.398885913129     1.164966929935     0.814268432378
H     -0.605649500000    -1.228284100000     0.192107600000    -2.593523375775    -3.067326301947     0.827226793285
H     -0.348661100000    -0.211442500000    -1.493076000000    -1.565236300167    -1.734774855364    -0.140845041761
C     -0.390144200000    -0.444026800000    -0.410523000000     2.214079942715     4.063526007691    -2.269821463441
5
Properties=species:S:1:pos:R:3:forces:R:3 energy=-1100.913975422828 pbc="F F F"
H     -0.731195500000     0.538633700000    -0.028496700000     0.394407254584    -0.520854117559     0.589451155058
H      0.721218900000    -0.591734300000    -0.312771700000    -0.271817046640     1.143318239690     0.374146960150
H     -0.628585700000    -1.258040400000     0.187674000000    -2.049169373556    -1.732769394748     0.007559043862
H     -0.388926300000    -0.243809200000    -1.484028900000    -1.241637231967    -1.429739153384    -0.601843873227
C     -0.390394300000    -0.440301900000    -0.416403000000     3.168679196183     2.540250114270    -0.369981772716
5
Properties=species:S:1:pos:R:3:forces:R:3 energy=-1101.188409053731 pbc="F F F"
H     -0.710113800000     0.533027100000     0.000981000000     0.133183153764    -0.467992232590     0.356149236669
H      0.765837000000    -0.562613600000    -0.266440200000    -1.510060422179     0.881888450602    -0.138273938406
H     -0.679725400000    -1.311325200000     0.183107800000    -1.076418130405     0.270017274292    -1.056723478709
H     -0.446523900000    -0.296064600000    -1.483181100000    -0.864867746395    -1.008335313577    -0.854686177111
C     -0.386998500000    -0.433653000000    -0.422704600000     3.318265989349     0.324370399207     1.693431513424
5
Properties=species:S:1:pos:R:3:forces:R:3 energy=-1101.292322534111 pbc="F F F"
H     -0.687243200000     0.520993500000     0.035416900000    -0.193758348797    -0.306784052262     0.098473258478
H      0.790075500000    -0.521334200000    -0.222001400000    -2.092415331979     0.454931027549    -0.614082325195
H     -0.745965000000    -1.361612800000     0.164544900000    -0.111225931117     1.659441527077    -1.480235623267
H     -0.516150100000    -0.362393400000    -1.493500700000    -0.412250711864    -0.537874821766    -0.450920106316
C     -0.379762700000    -0.426555200000    -0.427150800000     2.809804589958    -1.269405148196     2.446404841830
5
Properties=species:S:1:pos:R:3:forces:R:3 energy=-1101.296061650665 pbc="F F F"
H     -0.667111100000     0.504718600000     0.071238600000    -0.542451385737    -0.099398855686    -0.153443448198
H      0.785795000000    -0.473775500000    -0.186011100000    -1.993787807299    -0.051370645023    -0.959278661573
H     -0.813988900000    -1.389583200000     0.125956200000     0.664218840608     2.262828062317    -1.299384213309
H     -0.591370300000    -0.436136600000    -1.509514300000     0.184656642922     0.030081909248     0.458941948783
C     -0.369281800000    -0.420879800000    -0.428844200000     1.687415131574    -2.142037626721     1.952958686029
5
Properties=species:S:1:pos:R:3:forces:R:3 energy=-1101.232661842366 pbc="F F F"
H     -0.654530500000     0.487012400000     0.104927300000    -0.851600853085     0.075693282757    -0.392710326370
H      0.754456900000    -0.426935900000    -0.163202500000    -1.146814940252    -0.555255480443    -1.085365570079
H     -0.872982200000    -1.386585500000     0.069600300000     1.203533480253     2.235780055027    -0.739963545432
H     -0.663923600000    -0.509349900000    -1.519293100000     0.846458646376     0.684530557108     1.221222671332
C     -0.356876400000    -0.417669100000    -0.428283200000    -0.051319222956    -2.440696992383     0.996816770549
5
Properties=species:S:1:pos:R:3:forces:R:3 energy=-1101.090450785181 pbc="F F F"
H     -0.653736300000     0.470261400000     0.133119600000    -1.039137131764     0.162545154073    -0.626937841967
H      0.707994900000    -0.387741300000    -0.155239200000     0.482236145175    -0.945137593123    -0.911558983313
H     -0.915463400000    -1.352929800000     0.003174600000     1.441514806747     1.637330038228     0.075796126891
H     -0.724753800000    -0.573022100000    -1.512640400000     1.398628802794     1.302006738731     1.423825615668
C     -0.344582200000    -0.417272700000    -0.426548200000    -2.283036934683    -2.156641493775     0.038617972385
5
Properties=species:S:1:pos:R:3:forces:R:3 energy=-1100.869221672576 pbc="F F F"
H     -0.667259600000     0.455677400000     0.152549400000    -1.026230192925     0.157351525297    -0.844607451961
H      0.668629300000    -0.361519500000    -0.159768900000     2.342326578038    -1.117607206145    -0.523065266444
H     -0.938280300000    -1.297078700000    -0.061960600000     1.226210611840     0.408188368564     1.086034056951
H     -0.766278800000    -0.618646600000    -1.486746100000     1.709989419027     1.761154375782     1.027875699072
C     -0.334954100000    -0.419348500000    -0.424752900000    -4.252296415980    -1.208829953163    -0.746494147953
5
Properties=species:S:1:pos:R:3:forces:R:3 energy=-1100.677499226405 pbc="F F F"
H     -0.694891000000     0.443244500000     0.160219200000    -0.790408593248     0.108449139494    -1.001907555191
H      0.660568200000    -0.350757800000    -0.171835800000     2.946947242888    -1.130154190515    -0.306886896396
H     -0.944604200000    -1.236193600000    -0.111810900000     0.453439787604    -1.372197860309     2.147694054101
H     -0.784230500000    -0.639899000000    -1.447039500000     1.699910693877     1.969670857834     0.129583609068
C     -0.330135200000    -0.422776000000    -0.423780800000    -4.309632020786     0.424232053496    -0.968534633649
5
Properties=species:S:1:pos:R:3:forces:R:3 energy=-1100.645596053203 pbc="F F F"
H     -0.733403900000     0.432369700000     0.154008000000    -0.395281429725     0.092713986964    -1.030395380359
H      0.691386000000    -0.355775800000    -0.188631700000     1.620617866424    -1.087268186561    -0.427934442327
H     -0.944722800000    -1.194286300000    -0.131977900000    -0.394304410450    -2.898867610159     2.854078989723
H     -0.778791000000    -0.633938700000    -1.405928200000     1.339133471170     1.861478828675    -1.111590824295
C     -0.330153300000    -0.425700600000    -0.423856700000    -2.170062653285     2.031891559013    -0.284312608943
5
Properties=species:S:1:pos:R:3:forces:R:3 energy=-1100.814990468685 pbc="F F F"
H     -0.777401100000     0.422907400000     0.133584600000     0.043297380490     0.171595437881    -0.874740783276
H      0.744199800000    -0.375850300000    -0.211403000000    -0.334860500893    -0.904051361518    -0.547387904178
H     -0.949143000000    -1.191039900000    -0.113290700000    -0.262561074564    -2.844925861781     2.628336115196
H     -0.754868100000    -0.602257300000    -1.380331800000     0.762640677019     1.462340743919    -2.281340006469
C     -0.332749000000    -0.426392200000    -0.424197200000    -0.208259371716     2.115195307700     1.075184000795
5
Properties=species:S:1:pos:R:3:forces:R:3 energy=-1101.091676658122 pbc="F F F"
H     -0.820873500000     0.415953500000     0.101121300000     0.414307594548     0.337431604248    -0.542040009201
H      0.793051400000    -0.408368400000    -0.241571500000    -1.718422638030    -0.541628632664    -0.448297580895
H     -0.956150300000    -1.225831900000    -0.058948900000     0.748191076166    -1.311725509411     1.452416284971
H     -0.720061600000    -0.550232100000    -1.385629800000     0.355326483595     0.943080710439    -2.550843060090
C     -0.335752700000    -0.424763300000    -0.423304900000     0.200700327854     0.572996093589     2.088764365215
5
Properties=species:S:1:pos:R:3:forces:R:3 energy=-1101.278089890765 pbc="F F F"
H     -0.858684000000     0.413730100000     0.061173300000     0.668229761841     0.505941718103    -0.120070526656
H      0.818789200000    -0.448377000000    -0.277807500000    -2.291110199216    -0.096930596466    -0.168355847654
H     -0.953000100000    -1.278923500000     0.015459900000     1.537879760475     0.336043208436     0.025968143881
H     -0.679803000000    -0.485012100000    -1.424942200000     0.324164710938     0.402943317721    -1.430510484390
C     -0.338601700000    -0.422473600000    -0.420103000000    -0.239215456105    -1.147791959527     1.693328669290
5
Properties=species:S:1:pos:R:3:forces:R:3 energy=-1101.277394367738 pbc="F F F"
H     -0.887240300000     0.418466800000     0.019497700000     0.834117350275     0.568882328222     0.264926489650
H      0.813281400000    -0.489771500000    -0.316306300000    -2.132216011907     0.325295996414     0.194632523937
H     -0.929067900000    -1.328033000000     0.090615500000     1.700939135219     1.393743706420    -1.093593100813
H     -0.634948900000    -0.414238800000    -1.483587000000     0.349670056215    -0.204711249087     0.286832290231
C     -0.341735100000    -0.421452700000    -0.415004700000    -0.752561951869    -2.083056515768     0.347098952861
5
Properties=species:S:1:pos:R:3:forces:R:3 energy=-1101.148578659551 pbc="F F F"
H     -0.904148600000     0.430973600000    -0.018607300000     0.968174679180     0.466912369182     0.534480965338
H      0.778733000000    -0.526718900000    -0.352087600000    -1.263234500145     0.654911446464     0.551090293009
H     -0.881871700000    -1.358321400000     0.150971400000     1.379962592440     1.850011707714    -1.773649938085
H     -0.585468500000    -0.346338300000    -1.538783400000     0.160642537591    -0.815451139921     1.561791021672
C     -0.345750200000    -0.422797200000    -0.409481300000    -1.245750997334    -2.156230117238    -0.873712341934
5
Properties=species:S:1:pos:R:3:forces:R:3 energy=-1100.996729329436 pbc="F F F"
H     -0.907523700000     0.449863100000    -0.049353400000     1.076829506942     0.233147652188     0.697488918015
H      0.727293300000    -0.554655400000    -0.380249400000     0.273668241056     0.849903924871     0.823010183783
H     -0.815727500000    -1.363299800000     0.186979300000     0.727262294861     1.779872008203    -2.024486781352
H     -0.533939900000    -0.289721600000    -1.572970100000    -0.200803171988    -1.313268171424     2.111081542333
C     -0.351246700000    -0.426612300000    -0.404935500000    -1.876802604668    -1.549244037302    -1.607248128980
5
Properties=species:S:1:pos:R:3:forces:R:3 energy=-1100.876253094724 pbc="F F F"
H     -0.895912500000     0.471976400000    -0.070395200000     1.104751689372    -0.036509667634     0.804549661698
H      0.679922500000    -0.570818000000    -0.397043400000     1.969568013700     0.941898002896     0.961746920793
H     -0.739703500000    -1.344043900000     0.195202400000    -0.186919213874     1.104700267305    -1.779717742002
H     -0.485275600000    -0.251306300000    -1.578271200000    -0.610688468767    -1.648282938518     2.069583934191
C     -0.358932600000    -0.432193300000    -0.402251800000    -2.276557754230    -0.361342865445    -2.056317040881
5
Properties=species:S:1:pos:R:3:forces:R:3 energy=-1100.821845288938 pbc="F F F"
H     -0.869000300000     0.493642600000    -0.080195300000     0.988640661882    -0.253407946622     0.887184923512
H      0.658938300000    -0.573757000000    -0.400501300000     2.661914725006     1.054409485690     0.986480935064
H     -0.666474600000    -1.310222600000     0.179243200000    -1.241174433363    -0.331415222398    -0.908987879958
H     -0.445108800000    -0.235757400000    -1.555148200000    -0.974653859633    -1.793755966317     1.533971683376
C     -0.369171000000    -0.438149700000    -0.401988800000    -1.434469983556     1.324272493781    -2.498803928195
5
Properties=species:S:1:pos:R:3:forces:R:3 energy=-1100.820588939245 pbc="F F F"
H     -0.828436100000     0.511868500000    -0.077613500000     0.709418837580    -0.378774946188     0.931562167411
H      0.673306800000    -0.561909900000    -0.390245000000     1.785014214912     1.170211980778     0.918809494773
H     -0.610381800000    -1.281589300000     0.151074900000    -2.072720680283    -2.160498148807     0.355480749796
H     -0.418452100000    -0.245039900000    -1.511217100000    -1.219114366581    -1.689626280459     0.409679608510
C     -0.380951000000    -0.442537500000    -0.404639900000     0.797453416439     3.058481706408    -2.615532020490
5
Properties=species:S:1:pos:R:3:forces:R:3 energy=-1100.869679912316 pbc="F F F"
H     -0.778085600000     0.524891800000    -0.062092200000     0.303441617901    -0.417752873043     0.885025196694
H      0.711879200000    -0.533922900000    -0.367283000000     0.214789974237     1.083000154993     0.714303933954
H     -0.582483100000    -1.281838100000     0.127104500000    -2.217370955009    -2.831350436069     0.969923029461
H     -0.408666900000    -0.277638400000    -1.462388400000    -1.293779207996    -1.300104122249    -1.398783068995
C     -0.391800500000    -0.443459900000    -0.410208900000     2.993432791538     3.466053010167    -1.170726201449
5
Properties=species:S:1:pos:R:3:forces:R:3 energy=-1100.984845028704 pbc="F F F"
H     -0.723556600000     0.532125100000    -0.034343300000    -0.164344926421    -0.404948778338     0.698054560753
H      0.753819000000    -0.491085000000    -0.334489400000    -1.084697083207     0.731478904362     0.366227961818
H     -0.584856400000    -1.319199000000     0.115242700000    -1.711223548637    -1.471082495324     0.415387457957
H     -0.416821300000    -0.328319700000    -1.433132900000    -1.217108905965    -0.811851595225    -3.101264866227
C     -0.399234200000    -0.440507700000    -0.417004000000     4.177580152498     1.956455386592     1.621183509162
5
Properties=species:S:1:pos:R:3:forces:R:3 energy=-1101.118814029176 pbc="F F F"
H     -0.671339400000     0.533701100000     0.003026100000    -0.641336020752    -0.378672102054     0.382631601220
H      0.781252400000    -0.438192200000    -0.296648500000    -1.804708866608     0.216589746585    -0.052090553963
H     -0.610961200000    -1.376486400000     0.108974200000    -0.989874791492     0.508512821458    -0.368079156234
H     -0.441898900000    -0.390553600000    -1.444862000000    -1.026281614992    -0.445212256869    -2.811810050575
C     -0.401840900000    -0.435281000000    -0.422059200000     4.462406982112     0.099090323283     2.849091049215
5
Properties=species:S:1:pos:R:3:forces:R:3 energy=-1101.176794689948 pbc="F F F"
H     -0.628078800000     0.529973700000     0.045691900000    -1.096318470369    -0.352498269905     0.012906938840
H      0.784096300000    -0.382317400000    -0.259512700000    -1.932389859193    -0.343602252299    -0.450611573914
H     -0.651013300000    -1.427454000000     0.098091200000    -0.330541047258     1.859370523925    -0.722582886755
H     -0.481127000000    -0.458891100000    -1.493566800000    -0.653420206519     0.018923320689    -0.582714864269
C     -0.399270100000    -0.429877300000    -0.424007500000     4.013235226077    -1.182090478276     1.742231055093
5
Properties=species:S:1:pos:R:3:forces:R:3 energy=-1101.076215964924 pbc="F F F"
H     -0.600104500000     0.521305500000     0.088556400000    -1.492011276630    -0.329615450050    -0.344373583305
H      0.760568600000    -0.331189500000    -0.228575500000    -1.459872484699    -0.846972867047    -0.751842042930
H     -0.695856500000    -1.453300600000     0.077549100000     0.191135823375     2.425116106054    -0.681290966882
H     -0.529339000000    -0.526753600000    -1.550725600000    -0.142850502377     0.647866623273     1.493142562106
C     -0.392043400000    -0.425809500000    -0.423931200000     2.903804128599    -1.896342990163     0.283901232407
5
Properties=species:S:1:pos:R:3:forces:R:3 energy=-1100.931781465387 pbc="F F F"
H     -0.592878600000     0.508014600000     0.126649700000    -1.759560291702    -0.312646167910    -0.658665257362
H      0.717355700000    -0.291726300000    -0.207956600000    -0.335734676034    -1.180290705928    -0.870215641372
H     -0.738201900000    -1.445934200000     0.047760600000     0.553918506699     2.335281754847    -0.379597699262
H     -0.579585500000    -0.585618600000    -1.588252600000     0.344065050902     1.220914138929     2.516647385475
C     -0.381459300000    -0.423918900000    -0.423460600000     1.197619942537    -2.063361864073    -0.608683008150
5
Properties=species:S:1:pos:R:3:forces:R:3 energy=-1100.858915360119 pbc="F F F"
H     -0.610033000000     0.490332400000     0.155574300000    -1.802600561857    -0.306835474329    -0.925957162098
H      0.670101500000    -0.268460300000    -0.199220900000     1.323346896574    -1.234798097044    -0.736055468333
H     -0.773043800000    -1.406604100000     0.012913400000     0.693580840916     1.599689085118     0.147118533946
H     -0.625148200000    -0.627593400000    -1.591550400000     0.716515082839     1.618303873405     2.658006647907
C     -0.369511400000    -0.424402100000    -0.423672200000    -0.930790836405    -1.676565075418    -1.143318239690
5
Properties=species:S:1:pos:R:3:forces:R:3 energy=-1100.880204460089 pbc="F F F"
H     -0.652072400000     0.468343200000     0.171586100000    -1.540656552098    -0.307503961201    -1.143626772092
H      0.641136200000    -0.262202200000    -0.200603900000     2.730666028706    -1.058163296588    -0.453234099335
H     -0.798573600000    -1.345698700000    -0.019597600000     0.491852071720     0.165836166367     0.905594023530
H     -0.660863200000    -0.647149900000    -1.558408300000     0.923231792542     1.801057899844     2.107224887301
C     -0.358618500000    -0.426790100000    -0.425206400000    -2.605247607072    -0.601432496690    -1.416317993873
5
Properties=species:S:1:pos:R:3:forces:R:3 energy=-1100.986430908282 pbc="F F F"
H     -0.715336000000     0.442092000000     0.171689600000    -0.982675702099    -0.267806125407    -1.266011291768
H      0.648586700000    -0.270796700000    -0.208523600000     2.637592087272    -0.896543739723    -0.319485302833
H     -0.817608000000    -1.282948400000    -0.039308200000    -0.016815015939    -1.627611267548     1.741922522690
H     -0.683957000000    -0.641809400000    -1.496636300000     0.858491410076     1.700733446951     0.787631801625
C     -0.350606800000    -0.429819000000    -0.428335400000    -2.496181402773     1.091330529861    -0.944160573848
5
Properties=species:S:1:pos:R:3:forces:R:3 energy=-1101.090866575160 pbc="F F F"
H     -0.792160000000     0.412224200000     0.154280400000    -0.254693498299    -0.114516943411    -1.203019259582
H      0.691151000000    -0.292033400000    -0.221178800000     1.049884343786    -0.794316670347    -0.394098722181
H     -0.836590500000    -1.242059000000    -0.035167500000    -0.268474612279    -2.626484920780     2.103316810202
H     -0.695529700000    -0.613074900000    -1.424919000000     0.373632739479     1.247190815213    -1.425214011480
C     -0.345376800000    -0.431611100000    -0.432434200000    -0.900503238888     2.288024875191     0.919272293377
5
Properties=species:S:1:pos:R:3:forces:R:3 energy=-1101.105878824716 pbc="F F F"
H     -0.872566600000     0.380918100000     0.120316000000     0.462130116942     0.177406131462    -0.894126902569
H      0.748241800000    -0.324235800000    -0.239319100000    -0.731221794027    -0.568522373752    -0.449685976706
H     -0.858330100000    -1.235993500000    -0.002769500000     0.272022734909    -2.046186893664     1.489902971880
H     -0.702186900000    -0.567108200000    -1.373341500000    -0.331003845861     0.612333974913    -3.677603394177
C     -0.341247300000    -0.430884200000    -0.435363500000     0.328381320440     1.825020583108     3.531204769170
5
Properties=species:S:1:pos:R:3:forces:R:3 energy=-1101.116994403793 pbc="F F F"
H     -0.946690400000     0.352180600000     0.074065600000     1.022682070295     0.538954685175    -0.390036378881
H      0.795885500000    -0.364216300000    -0.263579000000    -1.865592594043    -0.190621602704    -0.359903047566
H     -0.875919900000    -1.257738100000     0.049801600000     1.107425636861    -0.729010645142     0.293414314818
H     -0.712628700000    -0.512313000000    -1.370523900000    -0.346790420458     0.157660057699    -3.700331947831
C     -0.336882700000    -0.428125800000    -0.434346100000     0.082275307345     0.222811816703     4.156754215326
5
Properties=species:S:1:pos:R:3:forces:R:3 energy=-1101.110016588075 pbc="F F F"
H     -1.006728100000     0.330915800000     0.022389400000     1.384282046076     0.838282537709     0.146450047074
H      0.818301300000    -0.406808000000    -0.292738000000    -2.228735231836     0.238649813367    -0.150666656575
H     -0.878447400000    -1.290028000000     0.106655400000     1.591718664719     0.343499408164    -0.782181062513
H     -0.726883600000    -0.455242300000    -1.416676300000     0.462438649345    -0.235924443811    -1.424442680473
C     -0.332527000000    -0.425081100000    -0.428708600000    -1.209755550371    -1.184250205094     2.210994618689
5
Properties=species:S:1:pos:R:3:forces:R:3 energy=-1100.967366339119 pbc="F F F"
H     -1.047563800000     0.321204800000    -0.027374700000     1.585805127003     0.982470013831     0.569859347497
H      0.810330400000    -0.446105200000    -0.323960700000    -1.874437189582     0.628789036382     0.099501699820
H     -0.859222800000    -1.318065500000     0.153029100000     1.617995341002     0.944160573848    -1.460798081906
H     -0.734881000000    -0.401593900000    -1.483006000000     1.135810617895    -0.712966960210     0.775444771724
C     -0.329584500000    -0.423352800000    -0.420483400000    -2.465122474251    -1.842349819718     0.016249373201
5
Properties=species:S:1:pos:R:3:forces:R:3 energy=-1100.811470403788 pbc="F F F"
H     -1.066340000000     0.325075000000    -0.069328300000     1.657281800259     0.975168080304     0.850726677945
H      0.776920800000    -0.476705100000    -0.353822300000    -0.825427020936     0.926265694501     0.322519204791
H     -0.817757300000    -1.333360800000     0.179410900000     1.279638139547     1.124446341068    -1.735649030505
H     -0.727576300000    -0.357852800000    -1.539718800000     1.311314132874    -1.130154190515     1.956661074860
C     -0.329511200000    -0.423733500000    -0.412157000000    -3.422652785542    -1.895571659156    -1.394360771225
5
Properties=species:S:1:pos:R:3:forces:R:3 energy=-1100.770162159234 pbc="F F F"
H     -1.062064700000     0.342484400000    -0.099485800000     1.592695683993     0.864816324328     1.028955562481
H      0.732561100000    -0.494466700000    -0.379255000000     0.716926459375     1.112362155301     0.471231822817
H     -0.758722200000    -1.333410200000     0.181955600000     0.637685053989     0.864662058126    -1.600357571990
H     -0.702314800000    -0.329770200000    -1.569921000000     1.131851118729    -1.405622203918     2.360478567721
C     -0.333437700000    -0.426294700000    -0.405417700000    -4.078952627818    -1.436012645569    -2.260308381029
5
Properties=species:S:1:pos:R:3:forces:R:3 energy=-1100.859667754942 pbc="F F F"
H     -1.035650000000     0.371915100000    -0.115315200000     1.387470214235     0.674297565757     1.134833598620
H      0.697933700000    -0.496737500000    -0.398183800000     1.971676318450     1.223433820217     0.541731476798
H     -0.691040300000    -1.322007500000     0.162642100000    -0.240089631245     0.044222977698    -0.992085940377
H     -0.661449500000    -0.321195300000    -1.567667700000     0.733535787046    -1.526464061581     2.228066744963
C     -0.342077500000    -0.430489900000    -0.401318100000    -3.853364019492    -0.415233191756    -2.912391613804
5
Properties=species:S:1:pos:R:3:forces:R:3 energy=-1101.037206538261 pbc="F F F"
H     -0.989936200000     0.410664900000    -0.115351000000     1.070504592690     0.375998154566     1.153499808974
H      0.689371100000    -0.481936700000    -0.409544400000     1.959129334080     1.270999232275     0.593924874895
H     -0.626723500000    -1.310575000000     0.129914700000    -1.105677286580    -1.239220394813     0.000617064805
H     -0.610493800000    -0.333789500000    -1.534898800000     0.170772684807    -1.463163496993     1.488720264337
C     -0.355092000000    -0.435126100000    -0.400617000000    -2.094575058797     1.055489349099    -3.236916279212
5
Properties=species:S:1:pos:R:3:forces:R:3 energy=-1101.193499215600 pbc="F F F"
H     -0.929299000000     0.454509600000    -0.099405200000     0.692655243709    -0.065563135540     1.024070466107
H      0.706867500000    -0.449561100000    -0.412581300000     0.807532141589     1.129228593307     0.645809740589
H     -0.577346600000    -1.316024400000     0.096985900000    -1.517722310176    -2.089278585886     0.802338512813
H     -0.557287500000    -0.366605800000    -1.482365300000    -0.506147406372    -1.174582856481    -0.173035255759
C     -0.370482600000    -0.438550000000    -0.403600500000     0.523939441585     2.200350250802    -2.299440574085
5
Properties=species:S:1:pos:R:3:forces:R:3 energy=-1101.215755680343 pbc="F F F"
H     -0.859007300000     0.497314200000    -0.069352500000     0.272896910049    -0.605957638594     0.698620203491
H      0.735551100000    -0.401685600000    -0.406660200000    -0.481670502437     0.726953762458     0.626423621296
H     -0.548510100000    -1.348898100000     0.074324500000    -1.346024028160    -1.461363724644     0.830106429042
H     -0.511077300000    -0.415705300000    -1.433246600000    -1.092564659471    -0.754310302150    -2.575371386093
C     -0.385310400000    -0.439517400000    -0.409096900000     2.647619390355     2.094883591199     0.420118288129
5
Properties=species:S:1:pos:R:3:forces:R:3 energy=-1101.143545913706 pbc="F F F"
H     -0.784972400000     0.531701100000    -0.029679400000    -0.213093046023    -1.085057037676     0.239626832642
H      0.758060400000    -0.343815600000    -0.392099400000    -1.304063621415     0.165064835360     0.495605882618
H     -0.538266600000    -1.401095300000     0.062750800000    -0.942720755970     0.121664610736     0.401657766044
H     -0.479678600000    -0.475460500000    -1.418715100000    -1.282157820834    -0.384225685300    -3.692361527432
C     -0.397128200000    -0.438099200000    -0.414153600000     3.742240932510     1.182758965148     2.555162513726
5
Properties=species:S:1:pos:R:3:forces:R:3 energy=-1101.093745811915 pbc="F F F"
H     -0.714009800000     0.551187100000     0.013386700000    -0.772719402169    -1.316250651315    -0.189696005497
H      0.762954700000    -0.283660300000    -0.370706000000    -1.570944149614    -0.422072326679     0.271662780439
H     -0.541283000000    -1.451903000000     0.056941300000    -0.577007014822     1.485429252043     0.065614557607
H     -0.465821800000    -0.540432400000    -1.452321200000    -1.125937581013     0.116779514362    -1.992450833555
C     -0.404621400000    -0.435299800000    -0.416510800000     4.046659569685     0.136268477790     1.844406702401
5
Properties=species:S:1:pos:R:3:forces:R:3 energy=-1100.954357663916 pbc="F F F"
H     -0.653901100000     0.552625100000     0.053978500000    -1.359959408342    -1.220451340325    -0.466552414712
H      0.746436600000    -0.229328700000    -0.345569700000    -1.326895019203    -0.934801757638    -0.005245050843
H     -0.552483800000    -1.482688600000     0.052309700000    -0.299122164265     2.196185063367    -0.052501930499
H     -0.467640300000    -0.603527100000    -1.512996700000    -0.877517574899     0.801464337672     0.491903493788
C     -0.407400700000    -0.432334600000    -0.416800600000     3.863648432910    -0.841779238271     0.031881681596
5
Properties=species:S:1:pos:R:3:forces:R:3 energy=-1100.834705389973 pbc="F F F"
H      0.524321800000    -0.952036500000    -0.255823500000    -2.171811003566     1.719451079371     0.799973097727
H     -0.840043400000     0.142623400000     0.601566900000    -1.207647245620    -0.121664610736     2.765941566730
H      0.079811000000     0.704539500000    -0.609525700000     1.385413331552     3.038735632645    -1.819878376399
H     -1.154481600000    -0.608237200000    -1.077645400000     1.828363017469     1.514277031680     2.043770056511
C     -0.364087000000    -0.132355900000    -0.261145100000     0.165836166367    -6.150747710894    -3.790063454904
5
Properties=species:S:1:pos:R:3:forces:R:3 energy=-1100.992331969455 pbc="F F F"
H      0.524051000000    -0.928933400000    -0.164492300000    -2.070252421063     1.532171911028    -0.096519219929
H     -0.756085100000     0.094294500000     0.622300300000    -2.143940243203     0.619790174642     3.985467309848
H      0.063552600000     0.734834500000    -0.675711100000     0.592125102547     1.138741675719    -0.571042055040
H     -1.146012500000    -0.541803400000    -1.111555100000     1.633884759733     0.814062744109     2.401564799327
C     -0.370800900000    -0.138425600000    -0.262344600000     1.988234224053    -4.104766505498    -5.719316568005
5
Properties=species:S:1:pos:R:3:forces:R:3 energy=-1101.226887858366 pbc="F F F"
H      0.495542500000    -0.885009900000    -0.074484800000    -1.320518682884     0.799561721190    -0.960204258781
H     -0.700275200000     0.053663000000     0.694274100000    -1.617172587929     0.610997001169     1.678621958102
H      0.055827700000     0.781274300000    -0.749714300000    -0.067620018224    -0.706024981152     0.870215641372
H     -1.115267000000    -0.464262300000    -1.112607400000     0.902817231908    -0.139250957681     2.080176880011
C     -0.375366500000    -0.149179200000    -0.269839100000     2.102545479196    -0.565231361459    -3.668964486906
5
Properties=species:S:1:pos:R:3:forces:R:3 energy=-1100.989925122361 pbc="F F F"
H      0.449241300000    -0.830441900000     0.002463100000     0.016095106999    -0.396309871066    -1.493502516576
H     -0.667283700000     0.021623000000     0.789133700000    -1.128920060904     0.575927151413    -1.298201505766
H      0.047758700000     0.818974100000    -0.812152800000    -0.231707834310    -1.611824692951     1.810828092591
H     -1.072767100000    -0.388868200000    -1.085714900000    -0.583229084940    -1.250944626110     0.753333282876
C     -0.377479600000    -0.160634000000    -0.281477100000     1.927864717289     2.683254882848     0.227491224808
5
Properties=species:S:1:pos:R:3:forces:R:3 energy=-1100.301918152512 pbc="F F F"
H      0.403384900000    -0.781552100000     0.059108300000     1.514019921345    -1.683918431012    -1.527955301527
H     -0.650586100000    -0.002135900000     0.867628100000    -1.035229054666     0.713069804344    -2.840863518481
H      0.036748700000     0.834893700000    -0.849827100000    -0.126806817445    -1.828105907134     2.240459463132
H     -1.039171400000    -0.330827500000    -1.049253900000    -2.609567060708    -2.207446496060    -1.306737568903
C     -0.377266700000    -0.169020700000    -0.292918900000     2.257685855608     5.006555296063     3.435251191980
5
Properties=species:S:1:pos:R:3:forces:R:3 energy=-1099.878175918608 pbc="F F F"
H      0.377905300000    -0.755570300000     0.094563000000     2.310804850912    -2.400793468320    -1.397651783519
H     -0.648450000000    -0.015920800000     0.907567600000    -1.010700728663     0.847332821517    -3.314049379847
H      0.024061300000     0.825672200000    -0.856570300000     0.071528095323    -1.630130948835     2.277637617639
H     -1.040762600000    -0.302976300000    -1.029619300000    -3.465950166033    -2.563338622393    -2.123834214971
C     -0.374446000000    -0.171674100000    -0.300527400000     2.094163682260     5.747033062166     4.557640650363
5
Properties=species:S:1:pos:R:3:forces:R:3 energy=-1100.172388145442 pbc="F F F"
H      0.383259100000    -0.762016000000     0.110025300000     1.851091571123    -2.127896558271    -1.586010815272
H     -0.660354900000    -0.017952600000     0.901666400000    -0.896852272125     0.887236345579    -3.265249838178
H      0.012453600000     0.794112400000    -0.831896800000     0.344579271573    -0.990697544565     1.889246744904
H     -1.087912400000    -0.310226400000    -1.036792100000    -1.957072451397    -2.245498825707    -0.640359001478
C     -0.369300300000    -0.167767100000    -0.302993900000     0.658356724959     4.476290940226     3.603247085164
5
Properties=species:S:1:pos:R:3:forces:R:3 energy=-1100.700010933949 pbc="F F F"
H      0.413603800000    -0.797426400000     0.103089300000     0.600558321550    -1.147791959527    -1.920922738232
H     -0.684735700000    -0.007691900000     0.850584600000    -0.718109166919     0.815451139921    -2.717707667799
H      0.005887900000     0.749556100000    -0.781492800000     0.805320992704     0.395075741456     0.885847949768
H     -1.161690200000    -0.348421600000    -1.052727600000     0.278707603630    -1.496073619930     1.112670687704
C     -0.363393000000    -0.158769700000    -0.301209200000    -0.966529173033     1.433390120147     2.640420300962
5
Properties=species:S:1:pos:R:3:forces:R:3 energy=-1100.957669017482 pbc="F F F"
H      0.452395900000    -0.848766600000     0.069662900000    -0.647918045340    -0.029002045839    -1.926013522874
H     -0.719319900000     0.013916500000     0.762532700000    -0.677897110454     0.688798588677    -1.226210611840
H      0.010892000000     0.711363000000    -0.719291700000     1.477921630248     2.390714743171    -0.582252065666
H     -1.232412100000    -0.407399000000    -1.054296500000     1.854691115819    -0.597730107860     1.889555277307
C     -0.358566900000    -0.148176300000    -0.296291500000    -2.006951856474    -2.452781178149     1.844972345139
5
Properties=species:S:1:pos:R:3:forces:R:3 energy=-1100.951060188158 pbc="F F F"
H      0.482556100000    -0.900776800000     0.009815000000    -1.527389658789     0.872323946123    -1.468151437500
H     -0.763977100000     0.045309200000     0.658830400000    -1.111025181557     0.677177201515     1.474682040021
H      0.036083600000     0.705262000000    -0.664527900000     1.692865870686     3.191407749837    -1.456118673801
H     -1.278068800000    -0.474841300000    -1.030343100000     2.651835999856     0.224200212514     1.851400103526
C     -0.355970500000    -0.140332800000    -0.289358900000    -1.705875653660    -4.965366220324    -0.401400655708
5
Properties=species:S:1:pos:R:3:forces:R:3 energy=-1100.958091066079 pbc="F F F"
H      0.491866800000    -0.941000000000    -0.070211500000    -1.936709312829     1.404285230174    -0.682576518559
H     -0.824405700000     0.086341300000     0.575361000000    -1.623086125644     0.749630894045     3.708508056498
H      0.083546800000     0.740773700000    -0.628711800000     0.777398810274     1.562305242343    -1.188723924931
H     -1.287312600000    -0.539390400000    -0.981060300000     2.814175465661     0.835145791616     1.286477274470
C     -0.355227000000    -0.138026700000    -0.282966500000    -0.032087369864    -4.551367158178    -3.123479199210
5
Properties=species:S:1:pos:R:3:forces:R:3 energy=-1101.070912465788 pbc="F F F"
H      0.474725600000    -0.962094800000    -0.159645200000    -1.765833783887     1.471185339459     0.236232976214
H     -0.905744300000     0.137184900000     0.540126700000    -0.714355356021     0.283284167601     3.062749737976
H      0.141475700000     0.797585900000    -0.609296700000    -0.518848656943    -0.636142391976    -0.665298704017
H     -1.257878600000    -0.592586000000    -0.914228100000     2.331065145346     1.147637693325     0.314548784392
C     -0.354633500000    -0.140893700000    -0.279931200000     0.667869807371    -2.265964808409    -2.948181372499
5
Properties=species:S:1:pos:R:3:forces:R:3 energy=-1100.967701311281 pbc="F F F"
H      0.433659800000    -0.963233600000    -0.245814000000    -0.907290951744     0.981133040086     1.117041563407
H     -0.995937600000     0.191435400000     0.546313400000     1.135656351693    -0.633674132756     1.117452939943
H      0.192632800000     0.846568300000    -0.599532300000    -1.428967822377    -1.982012153935    -0.401554921910
H     -1.196799100000    -0.630202000000    -0.843419100000     0.986789467466     1.029521205219    -1.026950101864
C     -0.353376300000    -0.146373500000    -0.280172200000     0.213658688761     0.605134885521    -0.806040901643
5
Properties=species:S:1:pos:R:3:forces:R:3 energy=-1100.473335734545 pbc="F F F"
H      0.380607700000    -0.951295200000    -0.316576900000     0.542914184341    -0.057078494470     1.793190323579
H     -1.071007500000     0.237105800000     0.569063600000     2.406707006036    -1.337899341560    -0.157145837029
H      0.224321100000     0.868761700000    -0.595624200000    -1.873460170307    -2.493301767016    -0.340825460676
H     -1.122989300000    -0.654077300000    -0.787299800000    -1.224256573290     0.361497131646    -2.600928153437
C     -0.351816700000    -0.151135100000    -0.281372700000     0.147632754617     3.527142425870     1.304937796555
5
Properties=species:S:1:pos:R:3:forces:R:3 energy=-1099.988019304231 pbc="F F F"
H      0.335121000000    -0.940280200000    -0.362607100000     1.930590086845    -1.166252481612     2.154995987628
H     -1.113281800000     0.264437800000     0.590401100000     2.907969316034    -1.703613082708    -0.753230438741
H      0.230230000000     0.856738300000    -0.596604400000    -1.914494979846    -2.381767303497    -0.386231145917
H     -1.065875100000    -0.672922200000    -0.767026900000    -2.984742462200    -0.271097137701    -3.637905558383
C     -0.350079900000    -0.151827700000    -0.281111100000     0.060266662630     5.522935693786     2.622422577480
5
Properties=species:S:1:pos:R:3:forces:R:3 energy=-1100.101391734507 pbc="F F F"
H      0.315350900000    -0.944515600000    -0.378725800000     2.231820555861    -1.381042455849     2.284065376025
H     -1.115400900000     0.268219300000     0.601590400000     2.903341329996    -1.797869731684    -0.985709604057
H      0.209882100000     0.812167900000    -0.603129000000    -1.468408547836    -1.556494548762    -0.558649336871
H     -1.047764200000    -0.694046700000    -0.795733200000    -2.526571844424     0.278296227094    -3.080490351122
C     -0.348394800000    -0.146336700000    -0.277930100000    -1.140438603933     4.457059087135     2.340938182227
5
Properties=species:S:1:pos:R:3:forces:R:3 energy=-1100.608903948174 pbc="F F F"
H      0.325348200000    -0.966679100000    -0.363060000000     1.311571243210    -0.446652074748     2.224261511999
H     -1.077384300000     0.247159900000     0.599371600000     2.432058085111    -1.595061099080    -0.856537371526
H      0.169772300000     0.746993800000    -0.617830300000    -0.348538770739     0.268834566749    -1.034560567793
H     -1.063498800000    -0.710539200000    -0.866216800000    -0.763926228696     1.437246775179    -1.380682501379
C     -0.348078600000    -0.135912200000    -0.272096800000    -2.631215750953     0.336248896705     1.047621772834
5
Properties=species:S:1:pos:R:3:forces:R:3 energy=-1100.895424332520 pbc="F F F"
H      0.353369800000    -0.994767200000    -0.316624500000     0.072145160128     0.791128502187     1.847234916091
H     -1.006109500000     0.204256000000     0.585986000000     1.268016752384    -0.967403348173     0.002776791623
H      0.125297500000     0.686287700000    -0.647437000000     1.136376260633     2.571514731061    -1.803371892863
H     -1.090484700000    -0.707658800000    -0.956121600000     0.609917137760     2.018933198106     0.298762209796
C     -0.350758000000    -0.125157500000    -0.265026800000    -3.086558155039    -4.413967394913    -0.345504868781
5
Properties=species:S:1:pos:R:3:forces:R:3 energy=-1100.929942247806 pbc="F F F"
H      0.382855800000    -1.012294200000    -0.244697000000    -0.803675486557     1.611413316414     1.151751458693
H     -0.918044500000     0.148363600000     0.574052800000    -0.658099614624     0.107215009884     1.999804189149
H      0.095486900000     0.659415800000    -0.701405000000     1.603545740150     3.094682841639    -1.798641062691
H     -1.109810800000    -0.677324200000    -1.042368000000     1.243539848449     1.906113182910     1.540605130031
C     -0.356845500000    -0.119346000000    -0.258480900000    -1.385464753619    -6.719527194981    -2.893776825517
5
Properties=species:S:1:pos:R:3:forces:R:3 energy=-1100.947256852733 pbc="F F F"
H      0.401700000000    -1.007967300000    -0.156852500000    -1.157202197804     1.825689069980     0.273102598318
H     -0.838698500000     0.093812600000     0.590031300000    -2.103265388135     1.023350557168     3.739978361558
H      0.086476000000     0.673046200000    -0.778643700000     0.758835444054     1.362839044099    -0.294442756160
H     -1.112327300000    -0.620776600000    -1.107560500000     1.347823800509     1.370346665894     2.327774133052
C     -0.364465600000    -0.121085800000    -0.255430000000     1.153911185510    -5.582173915074    -6.046618025035
5
Properties=species:S:1:pos:R:3:forces:R:3 energy=-1101.051131148718 pbc="F F F"
H      0.404903500000    -0.978724400000    -0.065201100000    -1.025561706053     1.480441311535    -0.618607467098
H     -0.786398200000     0.052551700000     0.654272100000    -1.695231285772     1.136787637169     2.284168220159
H      0.088253600000     0.705922000000    -0.859839900000    -0.027922182430    -0.357126255943     1.408501839675
H     -1.096400600000    -0.545333000000    -1.140737100000     1.065928028719     0.573818846663     2.602830769919
C     -0.370955400000    -0.129237600000    -0.259108700000     1.683301366207    -2.834127227692    -5.676893362655
5
Properties=species:S:1:pos:R:3:forces:R:3 energy=-1100.972256769415 pbc="F F F"
H      0.394183700000    -0.929247300000     0.018006500000    -0.516740352192     0.708338974171    -1.322061344896
H     -0.757373000000     0.026934200000     0.748609400000    -0.815811094390     0.979436111872    -0.784855010002
H      0.090299000000     0.734907600000    -0.922169200000    -0.276496454746    -1.168360786363     2.420385275882
H     -1.066079000000    -0.462102600000    -1.138301900000     0.313314654782    -0.435596330323     2.143426022533
C     -0.375551900000    -0.140730000000    -0.269181300000     1.296041778948    -0.083817969357    -2.456329300778
5
Properties=species:S:1:pos:R:3:forces:R:3 energy=-1100.568055303929 pbc="F F F"
H      0.376481000000    -0.870116400000     0.083107400000     0.208207949649    -0.290380412860    -1.679856087712
H     -0.740489700000     0.015187700000     0.833461600000    -0.489332390433     0.933259095625    -2.725472399930
H      0.088827100000     0.748271300000    -0.951344200000    -0.212784513620    -1.333939842394     2.792783885751
H     -1.032185900000    -0.385122400000    -1.107084300000    -1.123777854195    -1.558962807982     0.648072311541
C     -0.378546200000    -0.152361500000    -0.282137900000     1.618098185136     2.249921123477     0.965037933087
5
Properties=species:S:1:pos:R:3:forces:R:3 energy=-1100.109364126385 pbc="F F F"
H      0.361687800000    -0.815019900000     0.125103400000     0.923437480811    -1.259686377516    -1.684792606153
H     -0.730806900000     0.016545500000     0.881594300000    -0.472003153824     0.920609267121    -3.430057563203
H      0.084491800000     0.743365100000    -0.941931400000    -0.039337881324    -1.132622449735     2.703463755215
H     -1.014521800000    -0.329699900000    -1.067559100000    -2.890537235290    -2.435040565003    -1.391481135468
C     -0.379576200000    -0.161409900000    -0.294007800000     2.479212120633     3.905660261723     3.804204523354
5
Properties=species:S:1:pos:R:3:forces:R:3 energy=-1100.082925815837 pbc="F F F"
H      0.359475800000    -0.777205000000     0.143704900000     1.333991264461    -1.920305673427    -1.519573504591
H     -0.727762100000     0.030728600000     0.882463300000    -0.490617942110     0.852629294427    -3.444301475787
H      0.079671100000     0.722968700000    -0.895161200000     0.199260509976    -0.597832951994     2.170576873956
H     -1.035662800000    -0.307523600000    -1.045619800000    -3.253525606882    -2.604836230535    -1.880967792103
C     -0.377805200000    -0.165991600000    -0.301603100000     2.210943196622     4.269728496724     4.674523008860
5
Properties=species:S:1:pos:R:3:forces:R:3 energy=-1100.562826908218 pbc="F F F"
H      0.375260500000    -0.765652500000     0.140935600000     1.165378306472    -2.045055608188    -1.420688869576
H     -0.731564000000     0.056744800000     0.835687100000    -0.497457077033     0.695791989801    -2.923858734765
H      0.077821800000     0.694808100000    -0.818649100000     0.594439095566     0.454725339281     1.082743044657
H     -1.099630200000    -0.320984500000    -1.047449700000    -1.434727093892    -2.065367324689    -0.331826598935
C     -0.373623100000    -0.165716900000    -0.303903500000     0.172366768887     2.960059869996     3.593476892417
5
Properties=species:S:1:pos:R:3:forces:R:3 energy=-1100.983309762305 pbc="F F F"
H      0.406641600000    -0.782040700000     0.118155000000     0.392504638102    -1.581022874764    -1.408039041072
H     -0.742481300000     0.092455300000     0.748939900000    -0.642775838631     0.506558782908    -1.549655413839
H      0.084543100000     0.673581100000    -0.727465100000     1.168155098094     1.921334114769    -0.382991555690
H     -1.183261500000    -0.362954100000    -1.054137100000     0.819256372886    -1.165224040270     1.149643153942
C     -0.369221800000    -0.162097900000    -0.301990600000    -1.737500224920     0.318302595290     2.191505655262
5
Properties=species:S:1:pos:R:3:forces:R:3 energy=-1101.050017930916 pbc="F F F"
H      0.443197500000    -0.820123200000     0.075822900000    -0.654397225793    -0.738060928950    -1.257372384496
H     -0.762901100000     0.135486400000     0.641962600000    -1.201733707905     0.510878236544     1.014814494031
H      0.107218200000     0.678278900000    -0.641094600000     1.376877268415     2.536599147506    -1.397343251117
H     -1.256390500000    -0.421239300000    -1.045903900000     2.295481074919    -0.254025011427     1.665663597195
C     -0.366679100000    -0.158078900000    -0.297585000000    -1.816227409636    -2.055802820210    -0.025453923210
5
Properties=species:S:1:pos:R:3:forces:R:3 energy=-1100.909566906178 pbc="F F F"
H      0.470791700000    -0.868508700000     0.016226000000    -1.534280215779     0.136885542595    -0.823832936857
H     -0.800417600000     0.185978500000     0.549259000000    -1.900199645195     0.707207688695     3.498654600702
H      0.148002500000     0.716195200000    -0.573247600000     0.657019751215     1.321341435957    -1.572692499895
H     -1.298344700000    -0.483314600000    -1.015170200000     2.936868517739     0.462644337613     1.461672257047
C     -0.366086800000    -0.156293000000    -0.293261700000    -0.159665518316    -2.627976160726    -2.563647154796
5
Properties=species:S:1:pos:R:3:forces:R:3 energy=-1100.849487431203 pbc="F F F"
H      0.477468700000    -0.915278400000    -0.054668600000    -1.933726832938     0.759966729530    -0.185273707727
H     -0.863010200000     0.245481200000     0.502204800000    -1.373483411987     0.195918075615     3.358632312015
H      0.197579200000     0.771951500000    -0.527108300000    -0.425054806570    -0.497817031503    -1.447942565134
H     -1.299938500000    -0.539220200000    -0.964471300000     2.901798667983     0.914181508735     0.812725770365
C     -0.365760200000    -0.157416100000    -0.291676900000     0.830209273176    -1.372197860309    -2.538244653653
5
Properties=species:S:1:pos:R:3:forces:R:3 energy=-1100.798429891264 pbc="F F F"
H      0.457758900000    -0.951855800000    -0.128084500000    -1.740791237214     0.997228147086     0.520494163090
H     -0.943427000000     0.306830600000     0.500196400000     0.286369491627    -1.020059544874     1.541427883104
H      0.241565100000     0.821466400000    -0.501274100000    -1.227444741450    -1.749018767949    -1.333528465857
H     -1.261711700000    -0.582670600000    -0.902774700000     2.148568229242     1.060117335137    -0.176480534255
C     -0.364595700000    -0.160072300000    -0.292882100000     0.532526926789     0.712247051270    -0.552015890216
5
Properties=species:S:1:pos:R:3:forces:R:3 energy=-1100.559472832777 pbc="F F F"
H      0.414325900000    -0.974968400000    -0.194243700000    -0.988177863278     0.803881174825     1.199059760416
H     -1.020294700000     0.354346300000     0.520460500000     1.632444941854    -1.911666766156     0.185787928398
H      0.268808300000     0.847274900000    -0.494132100000    -1.647717295780    -2.325871516570    -1.235055207379
H     -1.194482300000    -0.611775600000    -0.843973300000     0.478945132881     0.775187661389    -1.524150068562
C     -0.362767300000    -0.161911100000    -0.294754400000     0.523888019518     2.658623712712     1.374306165060
5
Properties=species:S:1:pos:R:3:forces:R:3 energy=-1100.237574925460 pbc="F F F"
H      0.357491400000    -0.987286100000    -0.243750000000     0.126189752640     0.224200212514     1.757554831086
H     -1.075123500000     0.375722300000     0.544127200000     2.292858549497    -2.271569813722    -0.491954915855
H      0.273381900000     0.841131100000    -0.504282200000    -1.709886574893    -2.354924984476    -1.135964884096
H     -1.121282100000    -0.630555700000    -0.806723400000    -1.731740953406     0.086286228578    -2.997855089308
C     -0.360262600000    -0.160644500000    -0.295048900000     1.022579226161     4.315699824703     2.868117214039
5
Properties=species:S:1:pos:R:3:forces:R:3 energy=-1100.187644209017 pbc="F F F"
H      0.302293200000    -0.996565600000    -0.268901300000     1.119047024023    -0.423974943161     2.094112260193
H     -1.098368500000     0.365687300000     0.561281600000     2.488776625112    -2.275426468754    -0.827483903620
H      0.254529600000     0.802730400000    -0.530367900000    -1.314810833436    -1.745624911521    -1.067522112798
H     -1.070887900000    -0.647592100000    -0.810386200000    -2.729071944626    -0.137194074997    -3.551207953269
C     -0.356665400000    -0.154432600000    -0.292067500000     0.435699174458     4.582117554299     3.352153131561
5
Properties=species:S:1:pos:R:3:forces:R:3 energy=-1100.570958758818 pbc="F F F"
H      0.261947200000    -1.011162100000    -0.265082500000     1.436218333837    -0.556283921785     2.124862656313
H     -1.087174200000     0.324152300000     0.567115500000     2.312193246723    -1.954552770109    -0.913564443929
H      0.218036900000     0.740970600000    -0.571598800000    -0.268783144682    -0.220960622288    -1.173708681340
H     -1.056100000000    -0.665143800000    -0.861722100000    -1.649259957793     0.725153990110    -2.446199153561
C     -0.352736500000    -0.143123700000    -0.285292600000    -1.830574166354     2.006849012340     2.408661044585
5
Properties=species:S:1:pos:R:3:forces:R:3 energy=-1100.956926418757 pbc="F F F"
H      0.240880700000    -1.032665500000    -0.231925800000     1.064282522572     0.030596129919     1.798435374422
H     -1.044240300000     0.255764800000     0.560721300000     1.570172818608    -1.185844289174    -0.490617942110
H      0.178329100000     0.676868600000    -0.629643000000     1.175714141957     1.839984404632    -1.555260419152
H     -1.063957700000    -0.672545800000    -0.946495300000    -0.116368137826     1.625194430395    -0.617887558159
C     -0.350920800000    -0.129635100000    -0.275734400000    -3.693749923243    -2.309930675771     0.865227700864
5
Properties=species:S:1:pos:R:3:forces:R:3 energy=-1101.089999892515 pbc="F F F"
H      0.234516700000    -1.053489100000    -0.173965700000     0.507124425646     0.836431343294     1.148460446399
H     -0.980380800000     0.171380600000     0.548685400000    -0.053478949774     0.079344249521     0.964472290349
H      0.153974600000     0.636827500000    -0.708924400000     1.702533219299     2.499472415067    -1.435652691099
H     -1.074280100000    -0.658048800000    -1.040280800000     0.756829983438     1.832373938702     0.944674794519
C     -0.353179800000    -0.118720000000    -0.265245100000    -2.912854412407    -5.248136167254    -1.622109106369
5
Properties=species:S:1:pos:R:3:forces:R:3 energy=-1100.969652095545 pbc="F F F"
H      0.235507200000    -1.062991600000    -0.100130900000     0.151129455179     1.324889558586     0.319588146967
H     -0.917767100000     0.088125000000     0.551081400000    -1.984171880753     1.325095246855     3.037090126498
H      0.151719200000     0.629304400000    -0.806573700000     0.855251819849     1.193763287506     0.032858700871
H     -1.074716100000    -0.618507100000    -1.121425200000     1.017899818056     1.505792390611     2.008443096420
C     -0.358638100000    -0.113685200000    -0.256820200000    -0.040263478532    -5.349643327691    -5.398237181092
5
Properties=species:S:1:pos:R:3:forces:R:3 energy=-1100.787060157841 pbc="F F F"
H      0.238943800000    -1.054492400000    -0.021815100000     0.070911030518     1.348338021179    -0.506095984305
H     -0.880816000000     0.022395100000     0.593340000000    -2.234288815081     1.769484750651     2.948592749035
H      0.161470000000     0.638583700000    -0.903469200000    -0.037846641379    -0.146450047074     1.787791006535
H     -1.061309500000    -0.558188000000    -1.174997800000     0.911610405380     0.901634524364     2.588535435268
C     -0.364317500000    -0.114790300000    -0.254498800000     1.289768286763    -3.873058671188    -6.818977472734
5
Properties=species:S:1:pos:R:3:forces:R:3 energy=-1100.676923161363 pbc="F F F"
H      0.243571200000    -1.027519500000     0.049609200000     0.160693959658     1.020059544874    -1.166818124350
H     -0.873300900000    -0.019099200000     0.673661800000    -0.980567397348     1.732306596144     0.300510560077
H      0.171389500000     0.646772500000    -0.976176400000    -0.364993832208    -0.704122364670     2.865186156214
H     -1.035478900000    -0.485447200000    -1.192935100000     0.498794050778     0.116059605423     2.626227810445
C     -0.368681800000    -0.120434000000    -0.259819800000     0.686998816329    -2.164251959704    -4.624746447917
5
Properties=species:S:1:pos:R:3:forces:R:3 energy=-1100.483008021707 pbc="F F F"
H      0.250495500000    -0.986483500000     0.104995700000     0.295316931301     0.495503038484    -1.568784422796
H     -0.879971200000    -0.036355900000     0.758770100000    -0.002828213690     1.649619912263    -2.021195769058
H      0.176637500000     0.645741100000    -1.009555800000    -0.307966759805    -0.702991079194     3.257227995712
H     -1.003170200000    -0.411270800000    -1.175006900000    -0.356663457340    -0.829540786304     1.868163697397
C     -0.372199000000    -0.128640400000    -0.270510800000     0.372398609869    -0.612231130779    -1.535102968852
5
Properties=species:S:1:pos:R:3:forces:R:3 energy=-1100.270485464174 pbc="F F F"
H      0.261544200000    -0.938631100000     0.138742100000     0.422329437014    -0.136422743991    -1.688083618446
H     -0.887354400000    -0.030584500000     0.817048800000     0.411685069126     1.507129364355    -3.121576582728
H      0.177760000000     0.635220600000    -0.997920800000    -0.081503976338    -0.384791328038     3.123582043344
H     -0.976565200000    -0.348779700000    -1.132184200000    -1.790567798158    -1.816638786173     0.068494193365
C     -0.375176900000    -0.137574800000    -0.283002300000     1.038365800758     0.831083448316     1.618046763069
5
Properties=species:S:1:pos:R:3:forces:R:3 energy=-1100.216332629074 pbc="F F F"
H      0.278488300000    -0.892741100000     0.149150500000     0.531909861984    -0.809486180138    -1.549038349034
H     -0.889267400000    -0.003817600000     0.832541900000     0.559060713408     1.270793544007    -3.402238224907
H      0.177830900000     0.619591300000    -0.943106600000     0.228262555815     0.181879851299     2.499215304732
H     -0.975082200000    -0.311324500000    -1.088710300000    -3.174232779428    -2.446456263897    -1.882818986518
C     -0.376911000000    -0.145575600000    -0.293620900000     1.855411024759     1.802909094259     4.335137366063
5
Properties=species:S:1:pos:R:3:forces:R:3 energy=-1100.569947311599 pbc="F F F"
H      0.302814400000    -0.858086700000     0.138076600000     0.576235683816    -1.388910032114    -1.234078188104
H     -0.883499800000     0.040628200000     0.801036500000     0.565642737995     0.934441803168    -3.101573398629
H      0.181199900000     0.606830800000    -0.853874600000     0.620612927715     1.014146007158     1.387984434906
H     -1.015885200000    -0.307163100000    -1.069079800000    -2.791241223738    -2.280311565127    -1.831448341495
C     -0.376635400000    -0.151562400000    -0.299375800000     1.028749874212     1.720788053116     4.779475447792
5
Properties=species:S:1:pos:R:3:forces:R:3 energy=-1101.102987614951 pbc="F F F"
H      0.334942100000    -0.842493200000     0.109742200000     0.388185184466    -1.633833337666    -0.897212226595
H     -0.870100200000     0.098081700000     0.726951300000     0.311412038300     0.540445925121    -2.046392581933
H      0.193219100000     0.608294600000    -0.745440500000     0.952336682516     1.821575304613     0.096107843392
H     -1.093566100000    -0.334145600000    -1.073095200000    -0.624778115149    -1.452467707038    -0.149278260764
C     -0.375285300000    -0.155619700000    -0.299731300000    -1.026744413596     0.723765594299     2.996826647966
5
Properties=species:S:1:pos:R:3:forces:R:3 energy=-1101.311475812392 pbc="F F F"
H      0.372045600000    -0.849163800000     0.068755800000    -0.178434572804    -1.364587394380    -0.625138069619
H     -0.852977800000     0.163291500000     0.625531100000    -0.478430912210     0.318816815961     0.111071664915
H      0.217935100000     0.634202600000    -0.635164600000     0.754978789022     1.743876561239    -0.809691868407
H     -1.180225900000    -0.381317200000    -1.079844800000     1.434829938026    -0.479459353552     1.099609482663
C     -0.374977600000    -0.158816300000    -0.296653100000    -1.532840397900    -0.218800895470     0.224714433185
5
Properties=species:S:1:pos:R:3:forces:R:3 energy=-1101.058201211035 pbc="F F F"
H      0.406388500000    -0.874478300000     0.019036400000    -0.957427467158    -0.705716448750    -0.335888942235
H     -0.843074700000     0.233501000000     0.526370100000    -1.638101369234     0.494166064740     2.744858519223
H      0.252507700000     0.683186800000    -0.535760500000    -0.014089646383     0.581686422928    -1.327049285404
H     -1.247908600000    -0.435439900000    -1.072265700000     2.576245561233     0.303750150303     1.452930505642
C     -0.376253300000    -0.162221500000    -0.293321200000     0.032807278804    -0.673783345087    -2.534542264823
5
Properties=species:S:1:pos:R:3:forces:R:3 energy=-1100.676635537013 pbc="F F F"
H      0.427546800000    -0.909636700000    -0.035273300000    -1.553923445407    -0.007918998332     0.044685776302
H     -0.855016400000     0.310177000000     0.463396300000    -1.897114321169     0.265286444120     3.560926723949
H      0.286968500000     0.740191400000    -0.454845900000    -0.740323499902    -0.724588347372    -1.739454263470
H     -1.280407500000    -0.485617400000    -1.045002200000     2.938771134221     0.823730092722     1.223639508485
C     -0.377532900000    -0.166348000000    -0.292742900000     1.251818801251    -0.356406347004    -3.090003433534
5
Properties=species:S:1:pos:R:3:forces:R:3 energy=-1100.471713391710 pbc="F F F"
H      0.427464800000    -0.945187600000    -0.088887900000    -1.712817632717     0.455856624757     0.485989956072
H     -0.891839100000     0.389169200000     0.447661400000    -0.819050684617    -1.031423821701     2.256914524601
H      0.311450600000     0.787597700000    -0.398152500000    -1.149026089137    -1.589096139297    -2.033639909294
H     -1.272472700000    -0.524545800000    -1.001025500000     2.661606192603     1.092050438801     0.616293474079
C     -0.377497500000    -0.170774600000    -0.295559800000     1.018465460794     1.072612897440    -1.325917999928
5
Properties=species:S:1:pos:R:3:forces:R:3 energy=-1100.337965891920 pbc="F F F"
H      0.403937600000    -0.974742500000    -0.135685300000    -1.409170326548     0.588268447515     0.938092769932
H     -0.940076200000     0.453811800000     0.463533000000     0.369159019643    -2.303914293922     0.838848180447
H      0.320113400000     0.813252100000    -0.369735400000    -1.317741891261    -2.018727509838    -2.156178695171
H     -1.228147000000    -0.548527800000    -0.948877300000     1.615578503849     1.053535310550    -0.395384273859
C     -0.376263000000    -0.173927900000    -0.299915700000     0.741557629512     2.680632357427     0.774210642114
5
Properties=species:S:1:pos:R:3:forces:R:3 energy=-1100.230495611272 pbc="F F F"
H      0.361098100000    -0.996439700000    -0.169390600000    -0.746751258288     0.395847072463     1.350137793528
H     -0.983747800000     0.487007400000     0.491876000000     1.070144638220    -2.911054640059     0.005502161179
H      0.310569500000     0.811068400000    -0.371329800000    -1.265188538694    -2.063104753737    -2.119617605470
H     -1.162289800000    -0.558284000000    -0.902865000000    -0.323753334402     0.575155820407    -1.894440373680
C     -0.374069900000    -0.173956800000    -0.303383100000     1.265445649030     4.003207922994     2.658469446511
5
Properties=species:S:1:pos:R:3:forces:R:3 energy=-1100.245803920708 pbc="F F F"
H      0.307955600000    -1.012834300000    -0.184323600000     0.041343341941     0.006427758386     1.643757796614
H     -1.012862100000     0.480049000000     0.520702700000     1.397343251117    -2.982428469181    -0.467837966389
H      0.283725000000     0.780601800000    -0.402454800000    -0.844864562297    -1.569607175870    -1.954141393572
H     -1.101067400000    -0.560256800000    -0.883360400000    -2.257737277675    -0.080938333600    -3.300679642404
C     -0.370392200000    -0.169337200000    -0.303761300000     1.663092493840     4.625980577527     4.078901205751
5
Properties=species:S:1:pos:R:3:forces:R:3 energy=-1100.590201834673 pbc="F F F"
H      0.255128300000    -1.028997400000    -0.176505000000     0.607860255077    -0.258087354727     1.705052900586
H     -1.022670100000     0.431788900000     0.543176900000     1.486766225787    -2.641294476103    -0.754515990419
H      0.245759500000     0.729147200000    -0.460895500000     0.170207042069    -0.242506468399    -1.754726617396
H     -1.069077000000    -0.562420900000    -0.908158700000    -2.285916570440     0.008587485204    -3.138494442800
C     -0.364974100000    -0.159490200000    -0.299501800000     0.020157450299     3.133095125756     3.942889838297
5
Properties=species:S:1:pos:R:3:forces:R:3 energy=-1101.068429426814 pbc="F F F"
H      0.210296900000    -1.048237500000    -0.145215800000     0.750813601588    -0.084075079693     1.421614466783
H     -1.011997600000     0.347085200000     0.555393400000     1.269405148196    -1.827643108530    -0.758166957182
H      0.210649900000     0.674969300000    -0.544080700000     1.514379875815     1.555208997084    -1.670394427367
H     -1.067177200000    -0.563648100000    -0.974911600000    -0.745002908007     0.746134193483    -1.353223117553
C     -0.359661200000    -0.146174500000    -0.290750100000    -2.789955672061    -0.389882112680     2.360067191185
5
Properties=species:S:1:pos:R:3:forces:R:3 energy=-1101.341844263423 pbc="F F F"
H      0.175678300000    -1.068258800000    -0.094416600000     0.638662073264     0.416158788963     0.802441356947
H     -0.984219800000     0.237418300000     0.557745700000     0.478842288747    -0.489846611104    -0.115391118551
H      0.195514700000     0.640879100000    -0.650284600000     1.843995325865     1.973836045268    -1.218548723843
H     -1.076170000000    -0.554888000000    -1.060571000000     0.505067542963     1.148768978801     0.537566289364
C     -0.357405800000    -0.133222900000    -0.279287500000    -3.466515808771    -3.049431422600    -0.006222070118
5
Properties=species:S:1:pos:R:3:forces:R:3 energy=-1101.249479567385 pbc="F F F"
H      0.150056800000    -1.082556600000    -0.032579800000     0.561683238829     0.839516667319     0.011621387162
H     -0.950474400000     0.121115100000     0.559438600000    -0.882659781608     1.009466599053     1.267656797915
H      0.204451300000     0.632200400000    -0.772143000000     0.788248866430     0.631051607334     0.321593607584
H     -1.079010100000    -0.530652400000    -1.139471200000     0.991366031437     1.039291397966     1.801006477777
C     -0.358945600000    -0.123629000000    -0.267949600000    -1.458586933021    -3.519737648209    -3.402495335243
5
Properties=species:S:1:pos:R:3:forces:R:3 energy=-1100.800091418495 pbc="F F F"
H      0.132484100000    -1.085462800000     0.029463300000     0.632902801750     0.962569673867    -0.745260018342
H     -0.928536900000     0.018227800000     0.578250300000    -1.761257219916     1.935886559755     2.074880407101
H      0.224530200000     0.632664600000    -0.889276700000    -0.252636615616    -0.560911907823     2.073903387826
H     -1.068509000000    -0.492163800000    -1.193843400000     0.998205166360     0.660516451777     2.463579812238
C     -0.362225900000    -0.118084100000    -0.260523900000     0.383145821891    -2.997957933442    -5.867103588823
5
Properties=species:S:1:pos:R:3:forces:R:3 energy=-1100.399682403879 pbc="F F F"
H      0.123859000000    -1.075195900000     0.081293100000     0.775084817255     0.824758534064    -1.313833814162
H     -0.929537300000    -0.058274400000     0.623711600000    -1.274341666636     2.261748198908     0.989874791492
H      0.241844600000     0.626271300000    -0.978196700000    -0.663396087534    -0.931716433612     3.161531528857
H     -1.044365300000    -0.444575600000    -1.214299800000     0.701088462712     0.149021150428     2.609515638641
C     -0.365244400000    -0.116050300000    -0.259696600000     0.461873006607    -2.303965715989    -5.447448099297
5
Properties=species:S:1:pos:R:3:forces:R:3 energy=-1100.202107877030 pbc="F F F"
H      0.126019700000    -1.053535400000     0.115037000000     0.862862285778     0.546410884903    -1.615527081782
H     -0.947806900000    -0.103294400000     0.682243700000    -0.262406808363     2.390354788701    -0.802287090746
H      0.250381700000     0.607444800000    -1.023629200000    -0.625857978558    -0.760892326738     3.570645494629
H     -1.010802900000    -0.395036800000    -1.198924100000     0.050187937480    -0.478790866679     2.126456740393
C     -0.367772000000    -0.116737600000    -0.265110100000    -0.024836858405    -1.696928213986    -3.279648016964
5
Properties=species:S:1:pos:R:3:forces:R:3 energy=-1100.168564945705 pbc="F F F"
H      0.140137300000    -1.024326700000     0.126488400000     0.845018828498     0.175709203248    -1.633627649397
H     -0.970101000000    -0.115047500000     0.730297100000     0.489949455238     2.342635110441    -2.011734108714
H      0.250443700000     0.578335400000    -1.019683100000    -0.329564027983    -0.256801803050     3.428463479124
H     -0.977153000000    -0.352348400000    -1.154856400000    -1.121926659780    -1.225233592565     0.719394718596
C     -0.370261000000    -0.119413700000    -0.274328300000     0.116676670228    -1.036360340142    -0.502702127877
5
Properties=species:S:1:pos:R:3:forces:R:3 energy=-1100.251596136337 pbc="F F F"
H      0.165989200000    -0.992759600000     0.115359300000     0.741094830908    -0.279993155308    -1.397497517318
H     -0.985891500000    -0.094236500000     0.750999700000     0.934441803168     2.089330007953    -2.517315872347
H      0.246149700000     0.545997400000    -0.968400900000     0.195763809413     0.570116457832     2.699092879512
H     -0.959701000000    -0.326791400000    -1.101671900000    -2.641294476103    -1.925910678740    -1.409273170682
C     -0.372554900000    -0.123313000000    -0.284094300000     0.770508253284    -0.453594053805     2.625147947036
5
Properties=species:S:1:pos:R:3:forces:R:3 energy=-1100.541911420579 pbc="F F F"
H      0.202146400000    -0.965132700000     0.084869000000     0.570990632973    -0.744488687336    -0.983447033105
H     -0.988855600000    -0.044377500000     0.737089000000     1.145118012038     1.653579411429    -2.457100631784
H      0.244907500000     0.522068500000    -0.880053900000     0.969048854320     1.739248575201     1.368752581814
H     -0.978082300000    -0.327546500000    -1.066935800000    -3.149241654822    -2.061459247590    -2.439411440705
C     -0.374038000000    -0.127817500000    -0.290890700000     0.464186999626    -0.586931473771     4.511412212049
5
Properties=species:S:1:pos:R:3:forces:R:3 energy=-1101.063883220550 pbc="F F F"
H      0.246165300000    -0.947712000000     0.040667000000     0.280455953911    -1.017488441519    -0.516740352192
H     -0.976147000000     0.028465500000     0.689483400000     1.032863639579     1.074001293252    -1.770256081657
H      0.257081300000     0.522348000000    -0.772609300000     1.555517529487     2.719456018080     0.010850056156
H     -1.037933100000    -0.356070300000    -1.063527800000    -1.574286583975    -1.308845873654    -1.244568289791
C     -0.375141300000    -0.133096100000    -0.292678300000    -1.294293428667    -1.467482950628     3.521126044021
5
Properties=species:S:1:pos:R:3:forces:R:3 energy=-1101.439195718064 pbc="F F F"
H      0.293850800000    -0.944070900000    -0.010842400000    -0.224920121454    -0.898754888607    -0.104746750663
H     -0.949602700000     0.116346700000     0.618020600000     0.393584501511     0.503524880950    -0.299944917339
H      0.289563200000     0.558969400000    -0.663988600000     0.954444987266     2.282419869878    -0.559677778213
H     -1.119182600000    -0.402537000000    -1.077183800000     0.598398594732    -0.216898278988     0.351109874094
C     -0.377622900000    -0.140025900000    -0.290514200000    -1.721148007585    -1.670651537703     0.612796773517
5
Properties=species:S:1:pos:R:3:forces:R:3 energy=-1101.330700384504 pbc="F F F"
H      0.338217600000    -0.952601000000    -0.063885000000    -0.864713480194    -0.435647752391     0.253099414219
H     -0.918034300000     0.211606200000     0.542878000000    -0.613362416255     0.183422513312     1.550169634510
H      0.334346700000     0.625979600000    -0.562822200000    -0.501519420333     0.571710541912    -0.793802449676
H     -1.193039100000    -0.452344300000    -1.086906900000     1.996873131325     0.638713495331     1.163270001721
C     -0.381901700000    -0.148825100000    -0.287616900000    -0.017020704207    -0.958404486432    -2.172890866975
5
Properties=species:S:1:pos:R:3:forces:R:3 energy=-1100.858498209571 pbc="F F F"
H      0.370642900000    -0.967171700000    -0.113402900000    -1.364535972313     0.082635261814     0.590428174333
H     -0.894424000000     0.309406600000     0.488244700000    -1.103928936298    -0.191495777845     2.415654445710
H      0.372738000000     0.701276000000    -0.473093100000    -1.493605360710    -0.970488672199    -1.257166696228
H     -1.239888700000    -0.493610500000    -1.081098400000     2.573880146147     1.151802880760     1.316199229248
C     -0.386240500000    -0.158743700000    -0.287082000000     1.387315948034    -0.072453692530    -3.065732217867
5
Properties=species:S:1:pos:R:3:forces:R:3 energy=-1100.419669166914 pbc="F F F"
H      0.384376200000    -0.980828200000    -0.154687900000    -1.514431297882     0.399035240622     0.896492317655
H     -0.885163300000     0.403720800000     0.465644800000    -0.710807233392    -1.180187861794     1.833196691776
H      0.391068300000     0.763821000000    -0.401022500000    -1.772055854005    -1.821986681150    -1.773495671884
H     -1.251370500000    -0.519064300000    -1.057332000000     2.550431683554     1.386390350826     1.046593331493
C     -0.389090600000    -0.168703500000    -0.289954200000     1.446297058987     1.216954639763    -2.002786669040
5
Properties=species:S:1:pos:R:3:forces:R:3 energy=-1100.163902274710 pbc="F F F"
H      0.377351300000    -0.989259200000    -0.183469800000    -1.280615158821     0.407879836162     1.157356464005
H     -0.885682500000     0.481336300000     0.468368400000    -0.137656873601    -2.320420777458     0.904565582189
H      0.384996900000     0.801410300000    -0.353614800000    -1.680370308383    -2.184152299668    -2.148825339577
H     -1.227839800000    -0.525413000000    -1.019375600000     1.905033319501     1.346383982630     0.362371306787
C     -0.390267800000    -0.177208300000    -0.295123600000     1.193197644768     2.750309258334    -0.275108058934
5
Properties=species:S:1:pos:R:3:forces:R:3 energy=-1100.091610601801 pbc="F F F"
H      0.352748200000    -0.992337300000    -0.196108400000    -0.745465706611     0.112820015197     1.360782161415
H     -0.888465800000     0.527010600000     0.484190000000     0.169281444862    -3.014875793515     0.311360616233
H      0.355584700000     0.808761400000    -0.336090100000    -1.409427436883    -2.230689270385    -2.344280616588
H     -1.178617800000    -0.513342800000    -0.977027900000     0.422895079752     0.933773316296    -0.902148745035
C     -0.389976500000    -0.182487400000    -0.300607500000     1.562048132008     4.198920310340     1.574338006042
5
Properties=species:S:1:pos:R:3:forces:R:3 energy=-1100.176476111964 pbc="F F F"
H      0.317829700000    -0.994045300000    -0.189804200000    -0.109888957372    -0.352395425771     1.463317763194
H     -0.889162800000     0.531073100000     0.504740100000     0.231656412243    -3.187139718268     0.034761317353
H      0.306726400000     0.785332100000    -0.351182600000    -0.874586517075    -1.862764380353    -2.356981867159
H     -1.124245200000    -0.488610700000    -0.947864100000    -1.631416500513     0.201317392659    -2.563647154796
C     -0.387794000000    -0.182865200000    -0.304232800000     2.383772764113     5.201033553800     3.422807051744
5
Properties=species:S:1:pos:R:3:forces:R:3 energy=-1100.517261442321 pbc="F F F"
H      0.281127400000    -1.000517000000    -0.163229500000     0.320102367638    -0.665555814352     1.371632217571
H     -0.886772500000     0.491035100000     0.525986600000     0.154369045406    -2.893262604846    -0.053993170445
H      0.246270300000     0.736775200000    -0.399088100000     0.217772454128    -0.664321684742    -2.211303151092
H     -1.091393900000    -0.460705500000    -0.953423400000    -2.559790499764    -0.234998846603    -3.201692163255
C     -0.382940100000    -0.177295200000    -0.303946600000     1.867186678122     4.458344638812     4.095253423086
5
Properties=species:S:1:pos:R:3:forces:R:3 energy=-1101.024944815605 pbc="F F F"
H      0.248436300000    -1.015725100000    -0.117806500000     0.362885527458    -0.497868453570     0.973728262425
H     -0.882331700000     0.411054000000     0.546662700000    -0.023088508124    -2.104293829477     0.024116949465
H      0.189639800000     0.680197900000    -0.477978500000     1.895108860553     1.518185108779    -2.078222841462
H     -1.091709600000    -0.435294000000    -1.001186800000    -1.376517313945    -0.055844364860    -1.751744137504
C     -0.376131500000    -0.166754000000    -0.299048800000    -0.858594254210     1.139872961195     2.832173189142
5
Properties=species:S:1:pos:R:3:forces:R:3 energy=-1101.335625101147 pbc="F F F"
H      0.220560600000    -1.037425300000    -0.059111000000     0.181519896829     0.063043454253     0.272691221781
H     -0.878374800000     0.302159200000     0.567950100000    -0.334346280222    -0.856434527392     0.330489625191
H      0.158645900000     0.643834400000    -0.585904400000     2.766610053602     2.743058746875    -1.793396011848
H     -1.110950300000    -0.410736800000    -1.072785300000     0.185839350465     0.100221608759     0.339231376596
C     -0.370250700000    -0.154865000000    -0.290876700000    -2.799725864808    -2.049735016294     0.850829522079
5
Properties=species:S:1:pos:R:3:forces:R:3 energy=-1101.388775196672 pbc="F F F"
H      0.195319500000    -1.058301700000     0.003270400000     0.069574056773     0.587188584106    -0.541988587134
H     -0.879188200000     0.181368800000     0.593981200000    -0.699237268296     0.467375167785     0.702014059919
H      0.163838900000     0.642332900000    -0.717392100000     1.656099092716     1.243231316047    -0.306115565390
H     -1.128547900000    -0.385131900000    -1.140496300000     0.990183323894    -0.029979065114     1.757092032482
C     -0.367367800000    -0.145062000000    -0.281760300000    -2.016413516819    -2.268124535227    -1.610847673676
5
Properties=species:S:1:pos:R:3:forces:R:3 energy=-1101.042406634131 pbc="F F F"
H      0.171287400000    -1.071297100000     0.058192200000     0.151129455179     0.829232253901    -1.249042009628
H     -0.889416000000     0.066626200000     0.629184900000    -0.752047731198     1.395646322903     0.532732615057
H      0.191906800000     0.657999500000    -0.852479200000     0.190107382034    -0.599632724342     1.753183955383
H     -1.132960800000    -0.360066200000    -1.184473200000     1.199573981087    -0.271148559768     2.427532943207
C     -0.366824100000    -0.137825500000    -0.274478700000    -0.788351710564    -1.354200136828    -3.464407504020
5
Properties=species:S:1:pos:R:3:forces:R:3 energy=-1100.505689800414 pbc="F F F"
H      0.149537800000    -1.072997500000     0.095905900000     0.373838427748     0.798687546049    -1.714154606461
H     -0.909630600000    -0.029012200000     0.671005700000    -0.363039793659     1.947867901387    -0.314188829923
H      0.223536100000     0.666631000000    -0.963920000000    -0.564408608385    -1.355897065042     3.111652123779
H     -1.120963000000    -0.338791200000    -1.195082900000     1.059397426198    -0.511803833752     2.541792776282
C     -0.367310100000    -0.132232900000    -0.271095900000    -0.505376075365    -0.878648860375    -3.625204307812
5
Properties=species:S:1:pos:R:3:forces:R:3 energy=-1100.136655513884 pbc="F F F"
H      0.133063100000    -1.063745000000     0.109967300000     0.634548307897     0.565488471794    -1.876494072266
H     -0.934793900000    -0.097584300000     0.708408000000     0.152877805460     2.303862871855    -1.198648383879
H      0.247848100000     0.657091100000    -1.032688100000    -0.807069342985    -1.393332329884     3.697658000342
H     -1.094531600000    -0.324680200000    -1.170740800000     0.561734660896    -0.752459107735     2.086656060465
C     -0.368420700000    -0.127705500000    -0.271874900000    -0.541628632664    -0.723508483963    -2.709274448796
5
Properties=species:S:1:pos:R:3:forces:R:3 energy=-1100.076343925786 pbc="F F F"
H      0.125440000000    -1.046763000000     0.098117300000     0.866821784944     0.169538555197    -1.724181909544
H     -0.957947900000    -0.134116600000     0.729509300000     0.566671179337     2.466408025928    -1.686900910903
H      0.261117000000     0.628419000000    -1.050267300000    -0.813137146902    -1.084182862536     3.757101909899
H     -1.060864100000    -0.321173400000    -1.118094500000    -0.475808386788    -1.051221317531     0.846047269840
C     -0.370123200000    -0.124020600000    -0.275785000000    -0.144341742323    -0.500388134857    -1.192117781359
5
Properties=species:S:1:pos:R:3:forces:R:3 energy=-1100.252751531788 pbc="F F F"
H      0.129873800000    -1.027530400000     0.062436000000     1.025150329516    -0.325707372951    -1.304063621415
H     -0.973320600000    -0.136365600000     0.727483200000     0.846561490511     2.409689485927    -1.745882021856
H      0.263210900000     0.584905000000    -1.015807600000    -0.620407239447    -0.464546954095     3.302582258886
H     -1.034509100000    -0.332509500000    -1.054499300000    -2.011734108714    -1.437452463447    -1.093953055283
C     -0.371938800000    -0.120910800000    -0.281041500000     0.760686638469    -0.181725585098     0.841110751399
5
Properties=species:S:1:pos:R:3:forces:R:3 energy=-1100.599268124269 pbc="F F F"
H      0.148481700000    -1.012764800000     0.008665000000     1.022476382027    -0.733381520844    -0.736209734534
H     -0.977018900000    -0.105115600000     0.701487900000     0.964060913812     2.140803497111    -1.382585117862
H      0.257131100000     0.535534900000    -0.936012700000     0.031418882992     0.722942841225     2.057345482223
H     -1.035614900000    -0.363732400000    -1.005475600000    -2.891925631102    -1.582616958844    -2.363923846216
C     -0.372932200000    -0.118077100000    -0.285349600000     0.874535095008    -0.548056391050     2.425167528121
5
Properties=species:S:1:pos:R:3:forces:R:3 energy=-1100.983492622819 pbc="F F F"
H      0.181068200000    -1.007851400000    -0.055409900000     0.731633170563    -0.789071619503    -0.158379966639
H     -0.967547900000    -0.044101800000     0.656723500000     0.793493917273     1.688289306715    -0.510723970343
H      0.252475100000     0.497243300000    -0.828501200000     1.459461108162     2.654561369412    -0.041137653672
H     -1.074723600000    -0.416064400000    -0.987102500000    -1.796841290343    -0.882094138870    -1.704435835781
C     -0.373133100000    -0.116073700000    -0.286969900000    -1.187746905656    -2.671736339820     2.414677426435
5
Properties=species:S:1:pos:R:3:forces:R:3 energy=-1101.137656009201 pbc="F F F"
H      0.223539000000    -1.013474500000    -0.121764500000     0.142696236176    -0.419295535056     0.369107597575
H     -0.947447000000     0.040439700000     0.605379900000     0.230525126767     1.140387181866     0.820233392160
H      0.267916000000     0.495499100000    -0.720894700000     2.467899265873     3.939855936338    -1.538702513548
H     -1.137994300000    -0.480107700000    -0.991853300000     0.163059374744     0.349052991410    -0.364119657068
C     -0.374715200000    -0.117247400000    -0.285912100000    -3.004180003560    -5.010309106961     0.713686869149
5
Properties=species:S:1:pos:R:3:forces:R:3 energy=-1101.177747360572 pbc="F F F"
H      0.267911700000    -1.024745500000    -0.183011700000    -0.526767655275     0.142336281706     0.840133732124
H     -0.924188700000     0.140964100000     0.565265300000    -0.360417268237     0.579526696110     1.893566198540
H      0.314677800000     0.545438600000    -0.632573000000     0.996251127811     2.510733847760    -1.310697068069
H     -1.199796400000    -0.539587600000    -1.002362100000     1.504198306531     1.339184893237     0.475191321983
C     -0.379476200000    -0.124013400000    -0.284123300000    -1.613110244628    -4.572141673283    -1.898245606645
5
Properties=species:S:1:pos:R:3:forces:R:3 energy=-1100.994185609071 pbc="F F F"
H      0.305137400000    -1.034145600000    -0.232609200000    -1.005661366089     0.605391995856     1.211606744786
H     -0.905131500000     0.249302500000     0.550065900000    -0.285186784084    -0.237724216159     1.682530035201
H      0.374624000000     0.629362100000    -0.562604200000    -1.193763287506     0.030647551986    -0.959844304311
H     -1.241445500000    -0.580850200000    -1.006809700000     2.068658336983     1.877213981205     0.802852733484
C     -0.386083800000    -0.135977200000    -0.284373500000     0.415953100695    -2.275323624620    -2.737813696031
5
Properties=species:S:1:pos:R:3:forces:R:3 energy=-1100.604308761415 pbc="F F F"
H      0.328665000000    -1.035386400000    -0.265406600000    -1.158384905347     0.799407454989     1.440434943339
H     -0.889526800000     0.353861000000     0.557350700000     0.237467105824    -1.401148484081     0.576338527950
H      0.419273300000     0.714877800000    -0.506677000000    -2.277277663169    -1.562305242343    -1.091844750532
H     -1.254747900000    -0.596253700000    -1.000402800000     2.082028074426     2.039964823546     0.784135101063
C     -0.392347300000    -0.150614500000    -0.287655500000     1.115704589662     0.124132869956    -1.709115243886
5
Properties=species:S:1:pos:R:3:forces:R:3 energy=-1100.266433144567 pbc="F F F"
H      0.336358200000    -1.025819200000    -0.278196900000    -0.978304826396     0.661647737253     1.527903879459
H     -0.870876200000     0.438984400000     0.572988000000     0.555718279047    -2.420950918620    -0.340516928273
H      0.433027600000     0.779516800000    -0.466172700000    -2.495872870371    -2.294864010114    -1.355999909176
H     -1.239479500000    -0.583480000000    -0.983415400000     1.576754843195     1.859627634260     0.410605205717
C     -0.397342200000    -0.165140500000    -0.292912800000     1.341498886256     2.194539557220    -0.241940825661
5
Properties=species:S:1:pos:R:3:forces:R:3 energy=-1100.150639445162 pbc="F F F"
H      0.330670800000    -1.007368200000    -0.269729000000    -0.526047746336     0.200186107183     1.494942334454
H     -0.844857500000     0.490752200000     0.584482000000     0.526150590470    -2.982839845718    -0.735232715260
H      0.412268800000     0.812534000000    -0.444586300000    -2.315484259017    -2.565549771278    -1.565853364972
H     -1.202917100000    -0.545119000000    -0.961270400000     0.400217948165     1.291928013581    -0.468403609127
C     -0.400722300000    -0.177104600000    -0.298451700000     1.914854934315     4.055709853493     1.274547354905
5
Properties=species:S:1:pos:R:3:forces:R:3 energy=-1100.261739996819 pbc="F F F"
H      0.317748700000    -0.986344000000    -0.240452000000     0.030596129919    -0.448246158828     1.350652014199
H     -0.811758900000     0.501300400000     0.586183700000     0.243483487673    -3.064960886861    -0.687564459067
H      0.359383200000     0.809992100000    -0.444814600000    -1.860450387334    -2.499986635738    -1.680267464249
H     -1.161433700000    -0.489013700000    -0.946240300000    -1.298098661632     0.451537171122    -1.769279062382
C     -0.401804900000    -0.184327200000    -0.302486000000     2.884520853441     5.561450822037     2.786561815633
5
Properties=species:S:1:pos:R:3:forces:R:3 energy=-1100.619704419400 pbc="F F F"
H      0.305012000000    -0.971424400000    -0.192422500000     0.379289166859    -0.943800619379     1.062071373687
H     -0.775480200000     0.469506500000     0.578745100000    -0.240295319514    -2.640214612694    -0.209390657192
H      0.280961600000     0.773086300000    -0.468468500000    -0.945497547593    -1.852634233136    -1.710246529362
H     -1.137284400000    -0.426297100000    -0.955273900000    -2.253829200576    -0.156220239821    -2.429178449354
C     -0.399569800000    -0.185150500000    -0.303339000000     3.059664413951     5.593435347767     3.286538573954
5
Properties=species:S:1:pos:R:3:forces:R:3 energy=-1101.066805723410 pbc="F F F"
H      0.297049700000    -0.969104200000    -0.129785100000     0.287295088835    -0.926625648970     0.545948086300
H     -0.742785000000     0.401437000000     0.568992400000    -0.907136685543    -1.624885897992     0.790922813919
H      0.190247200000     0.711631700000    -0.516118600000     0.762126456348    -0.017689191079    -1.792624680841
H     -1.142412900000    -0.365247500000    -0.996151900000    -1.407216287998    -0.360931488908    -1.363456108904
C     -0.393943900000    -0.179666900000    -0.300534600000     1.264880006292     2.930029382816     1.819518421930
5
Properties=species:S:1:pos:R:3:forces:R:3 energy=-1101.094972773311 pbc="F F F"
H      0.292767200000    -0.979182800000    -0.059798200000    -0.089371552603    -0.434465044847    -0.213504422560
H     -0.722826400000     0.311096400000     0.570685900000    -1.580662920294    -0.233764716993     2.047163912939
H      0.110783600000     0.651277600000    -0.589223800000     2.841686271554     2.764141794382    -2.115966638706
H     -1.166622900000    -0.309358900000    -1.055268000000     0.007610465929    -0.624418160680     0.442075510777
C     -0.386900000000    -0.170930600000    -0.295638900000    -1.178953732183    -1.471545293928    -0.159408407980
5
Properties=species:S:1:pos:R:3:forces:R:3 energy=-1100.951276518677 pbc="F F F"
H      0.287331000000    -0.995311800000     0.007125700000    -0.395949916597     0.099553121887    -1.032863639579
H     -0.724411900000     0.216976200000     0.599888500000    -1.750972806498     0.749065251307     2.312038980522
H      0.069022800000     0.626881200000    -0.691169300000     3.240104447371     3.313226626774    -1.704178725446
H     -1.191532200000    -0.262407900000    -1.108906700000     0.802749889349    -1.041348280649     1.703510238573
C     -0.381057300000    -0.163638000000    -0.290834000000    -1.895263126754    -3.120599563453    -1.277169880326
5
Properties=species:S:1:pos:R:3:forces:R:3 energy=-1100.926507626662 pbc="F F F"
H      0.276618200000    -1.010332600000     0.059798700000    -0.481824768638     0.402840473587    -1.675228101674
H     -0.749557800000     0.132482400000     0.659236100000    -1.143009707287     1.042273877857     0.806966498851
H      0.070396400000     0.645244500000    -0.814805800000     1.845126611341     1.006535541229     0.358926028292
H     -1.205847700000    -0.229966300000    -1.139517700000     1.041039748247    -1.401611282685     2.262108153377
C     -0.377304600000    -0.159619600000    -0.287475800000    -1.260714818857    -1.049832921719    -1.752669734712
5
Properties=species:S:1:pos:R:3:forces:R:3 energy=-1100.653547764427 pbc="F F F"
H      0.259375200000    -1.019957800000     0.089358800000    -0.379700543396     0.491235006915    -2.021041502857
H     -0.790399200000     0.062451200000     0.729424900000    -0.255567673440     1.185638600905    -1.126811756154
H      0.097946500000     0.678473600000    -0.933660000000     0.612591085249    -0.862605175443     2.316872654829
H     -1.205893800000    -0.216934000000    -1.139012100000     0.993937134792    -1.578914570013     2.320523621592
C     -0.375081300000    -0.156887400000    -0.286101600000    -0.968946010186     0.764748981770    -1.487846089196
5
Properties=species:S:1:pos:R:3:forces:R:3 energy=-1100.314275115019 pbc="F F F"
H      0.236978700000    -1.022920100000     0.090993900000    -0.134880081978     0.390293489217    -2.039502024943
H     -0.835068000000     0.009086600000     0.784795000000     0.443669594857     1.372557814779    -2.299183463750
H      0.134743500000     0.701004000000    -1.021280400000    -0.064843226601    -1.583593978118     3.286332885686
H     -1.192353900000    -0.225796800000    -1.106565300000     0.647660935005    -1.572743921962     1.888012615294
C     -0.374020300000    -0.153377000000    -0.286442600000    -0.891144422678     1.393229485749    -0.835402901952
5
Properties=species:S:1:pos:R:3:forces:R:3 energy=-1100.211475124555 pbc="F F F"
H      0.212834600000    -1.020655700000     0.064433100000     0.230370860565     0.086697605115    -1.745059268783
H     -0.873802600000    -0.025113200000     0.808892700000     0.905336913195     1.515099784754    -2.678369786475
H      0.170909300000     0.701999800000    -1.063656200000    -0.491646383452    -1.727730032173     3.573885084855
H     -1.170321600000    -0.256553300000    -1.048413600000    -0.189078940692    -1.457404225478     0.832317577927
C     -0.373970600000    -0.148268100000    -0.287747500000    -0.454982449617     1.583234023649     0.017432080744
5
Properties=species:S:1:pos:R:3:forces:R:3 energy=-1100.380821647997 pbc="F F F"
H      0.191991000000    -1.017347600000     0.013709700000     0.652700297579    -0.352549691972    -1.217006061830
H     -0.900058500000    -0.038203500000     0.796121800000     1.188518236662     1.567138916649    -2.491193462265
H      0.200280800000     0.679106000000    -1.056449400000    -0.826866838815    -1.587296366949     3.439827755951
H     -1.151476700000    -0.307736300000    -0.979174700000    -1.435241314562    -1.347001047435    -0.662984710998
C     -0.374407500000    -0.141298000000    -0.289021500000     0.420889619136     1.719502501439     0.931665011545
5
Properties=species:S:1:pos:R:3:forces:R:3 energy=-1100.781189029193 pbc="F F F"
H      0.180143700000    -1.018837500000    -0.053952200000     0.946063190331    -0.665761502620    -0.596907354786
H     -0.909911800000    -0.029449100000     0.749101900000     1.253515729465     1.532274755162    -1.739248575201
H      0.218280400000     0.634419100000    -1.001641100000    -0.962621095934    -1.050758518927     2.794275125697
H     -1.152037000000    -0.377683700000    -0.918579100000    -2.068195538379    -1.121103906707    -1.613521621165
C     -0.374392800000    -0.132353400000    -0.289268000000     0.831494824853     1.305400595159     1.155608113724
5
Properties=species:S:1:pos:R:3:forces:R:3 energy=-1101.201426980805 pbc="F F F"
H      0.181117100000    -1.029119000000    -0.129992800000     0.883276846413    -0.539160373444     0.013832536047
H     -0.902692900000     0.000692400000     0.678637400000     0.899063421010     1.438069528252    -0.205482580094
H      0.223565900000     0.576007500000    -0.908769500000    -0.417032964104     0.345556290848     1.229450202066
H     -1.179622600000    -0.462631700000    -0.879074400000    -1.162550092782    -0.331878021002    -1.369935289357
C     -0.373550900000    -0.122054400000    -0.288267100000    -0.202705788471    -0.912690268789     0.332083709270
5
Properties=species:S:1:pos:R:3:forces:R:3 energy=-1101.078823904161 pbc="F F F"
H      0.194046300000    -1.046456300000    -0.205843300000     0.478996554948    -0.006170648051     0.619841596709
H     -0.883580700000     0.050980300000     0.606225300000    -0.013986802249     1.346898203301     2.056882683619
H      0.224544000000     0.523840100000    -0.799939800000     1.345149853020     2.832276033277    -1.299075680907
H     -1.222815600000    -0.551718500000    -0.858327600000     0.333729215417     0.871244082714    -0.730141930618
C     -0.373039000000    -0.113031800000    -0.286883500000    -2.143940243203    -5.044453359509    -0.647403824669
5
Properties=species:S:1:pos:R:3:forces:R:3 energy=-1100.606969762855 pbc="F F F"
H      0.213620900000    -1.063854800000    -0.273039300000     0.016403639402     0.557055252791     1.197157143933
H     -0.864574200000     0.120073100000     0.561922600000    -0.800898694934     1.172423129663     3.656057548066
H      0.244050800000     0.510337700000    -0.708178800000     2.678266942341     4.350821096526    -2.842663290829
H     -1.262004300000    -0.628861300000    -0.848135200000     1.311828353545     1.878910909419    -0.336968805644
C     -0.374968800000    -0.109834200000    -0.286267600000    -3.205291707951    -7.959210388399    -1.673942549996
5
Properties=species:S:1:pos:R:3:forces:R:3 energy=-1100.621061451222 pbc="F F F"
H      0.233648100000    -1.073745900000    -0.323631000000    -0.263949470375     0.880345788589     1.637484304429
H     -0.855242600000     0.204854300000     0.565736300000    -0.386076879715     0.402120564648     2.801011416486
H      0.297009800000     0.553390600000    -0.653223300000     0.945240437257     2.505180264514    -2.077297244254
H     -1.283582800000    -0.680211800000    -0.842922500000     1.642163712534     2.449593009989    -0.170824106875
C     -0.380412200000    -0.115500900000    -0.287578300000    -1.937223533500    -6.237342471874    -2.190374369786
5
Properties=species:S:1:pos:R:3:forces:R:3 energy=-1100.658670035732 pbc="F F F"
H      0.250266100000    -1.071633000000    -0.351548300000    -0.300921936613     0.924157389750     1.860296121132
H     -0.850664900000     0.294583000000     0.607189900000     0.585594500026    -0.908422237220     0.602409515965
H      0.362548000000     0.630717700000    -0.627281400000    -1.478333006784    -0.163984971952    -1.094518698021
H     -1.282710200000    -0.697739600000    -0.840262100000     1.489902971880     2.600156822430    -0.151489409649
C     -0.388112100000    -0.128310600000    -0.291303600000    -0.296602482978    -2.451907003008    -1.217314594233
5
Properties=species:S:1:pos:R:3:forces:R:3 energy=-1100.446327345460 pbc="F F F"
H      0.262899100000    -1.056887400000    -0.353670100000    -0.142439125841     0.701191306846     1.863330023091
H     -0.838508500000     0.371906000000     0.657849100000     1.085519836280    -1.987000094443    -1.039034287630
H      0.408964400000     0.707182400000    -0.617388000000    -2.656772518297    -1.710092263161    -0.693477996782
H     -1.261506400000    -0.679359100000    -0.839959700000     0.868878667628     2.312038980522    -0.341493947548
C     -0.396215800000    -0.144082800000    -0.296423300000     0.844401763693     0.683810648169     0.210573364736
5
Properties=species:S:1:pos:R:3:forces:R:3 energy=-1100.289692076771 pbc="F F F"
H      0.273644900000    -1.032580100000    -0.329913000000     0.104026841724     0.258344465063     1.679341867041
H     -0.811760200000     0.422022700000     0.694965800000     1.066493671457    -2.549094709809    -1.828260173335
H      0.419213800000     0.760695400000    -0.617500000000    -2.925452818845    -2.386138179200    -0.560191998884
H     -1.228781800000    -0.629171500000    -0.844850000000    -0.293568581020     1.547855641491    -0.873763764001
C     -0.403317000000    -0.159116700000    -0.301303100000     2.048089510147     3.128724250053     1.582565536777
5
Properties=species:S:1:pos:R:3:forces:R:3 energy=-1100.382411337169 pbc="F F F"
H      0.285754700000    -1.004724700000    -0.282816600000     0.268937410883    -0.240655273983     1.338105029828
H     -0.770422900000     0.436950400000     0.707154800000     0.739757857164    -2.665360003501    -2.018418977436
H      0.389027400000     0.781312000000    -0.625521400000    -2.713182525895    -2.593471953708    -0.491080740714
H     -1.200435400000    -0.557575800000    -0.862251400000    -1.624937320059     0.581275046391    -1.594444034275
C     -0.407994700000    -0.170528600000    -0.304334600000     3.329218889639     4.917852230332     2.765684456394
5
Properties=species:S:1:pos:R:3:forces:R:3 energy=-1100.804187004205 pbc="F F F"
H      0.301331200000    -0.980018900000    -0.217165300000     0.184245266385    -0.555306902510     0.835865700556
H     -0.718975900000     0.415059300000     0.691716200000     0.190621602704    -2.333019183895    -1.637998525100
H      0.321332600000     0.766092200000    -0.640453700000    -2.065624435025    -2.363409625546    -0.459559013588
H     -1.193569100000    -0.477320100000    -0.901157500000    -1.895674503291     0.018614788287    -1.612698868092
C     -0.408858600000    -0.176301600000    -0.304217800000     3.586072114756     5.233378033999     2.874082173821
5
Properties=species:S:1:pos:R:3:forces:R:3 energy=-1101.298939254737 pbc="F F F"
H      0.319189400000    -0.962721300000    -0.140012200000    -0.147067111879    -0.562865946372     0.158997031444
H     -0.665145700000     0.361213400000     0.654344900000    -0.604877775185    -1.380014014507    -0.380060497866
H      0.225479700000     0.718681900000    -0.662020300000    -0.751379244326    -1.331985803845    -0.612282552846
H     -1.211425000000    -0.396377700000    -0.961090100000    -0.716515082839    -0.206870975905    -0.391167664357
C     -0.405673200000    -0.176122900000    -0.300901900000     2.219839214229     3.481633896495     1.224822216028
5
Properties=species:S:1:pos:R:3:forces:R:3 energy=-1101.214926277298 pbc="F F F"
H      0.334942100000    -0.953064000000    -0.060775900000    -0.518283014205    -0.366639338355    -0.635885281641
H     -0.620039000000     0.288887000000     0.613046900000    -1.594855410811     0.249859823993     1.998518637472
H      0.120100800000     0.654199900000    -0.692770200000     1.362376245495     0.995582640939    -1.274135978368
H     -1.239276500000    -0.318599200000    -1.026183500000     0.549701897197    -0.621384258721     1.124754873470
C     -0.399938700000    -0.172050900000    -0.296226300000     0.201214548525    -0.257624556123    -1.213560783335
5
Properties=species:S:1:pos:R:3:forces:R:3 energy=-1100.581860456401 pbc="F F F"
H      0.343641800000    -0.948562500000     0.009606700000    -0.721348757145    -0.184142422251    -1.386801727363
H     -0.596942600000     0.219855300000     0.599470200000    -2.283653999488     1.657230378192     3.998734203157
H      0.033596100000     0.604070800000    -0.741747900000     3.216913095113     3.481531052361    -2.135095647664
H     -1.260357500000    -0.249745700000    -1.076244200000     1.070196060287    -1.220862716862     2.067115674970
C     -0.393916900000    -0.168278700000    -0.292866800000    -1.281849288432    -3.733859135574    -2.543489704496
5
Properties=species:S:1:pos:R:3:forces:R:3 energy=-1100.403173896819 pbc="F F F"
H      0.342485900000    -0.946821600000     0.060830100000    -0.717132147644    -0.147169956013    -1.916397596328
H     -0.604642100000     0.172261800000     0.637835400000    -2.017030581624     1.685409670958     2.813969777392
H     -0.010352200000     0.598914100000    -0.818518800000     3.124610484686     3.026342914476    -1.333014245187
H     -1.267113100000    -0.197936400000    -1.098106800000     1.021036564149    -1.779563475800     2.372408487286
C     -0.389257900000    -0.168420700000    -0.292294000000    -1.411021520963    -2.785070575688    -1.936863579030
5
Properties=species:S:1:pos:R:3:forces:R:3 energy=-1100.530166170029 pbc="F F F"
H      0.331444900000    -0.947262600000     0.085594800000    -0.572996093589    -0.216281214183    -2.123114306032
H     -0.639813600000     0.147547800000     0.713474000000    -1.096112782101     1.067162158329    -0.168921490392
H     -0.011746900000     0.633877800000    -0.912256300000     1.976818525159     0.673731923019     0.833808817872
H     -1.259839300000    -0.170801100000    -1.087251800000     0.719034764126    -2.130107707156     2.227192569823
C     -0.386213000000    -0.171598400000    -0.293952200000    -1.026333037059     0.605443417923    -0.768297104399
5
Properties=species:S:1:pos:R:3:forces:R:3 energy=-1100.455493500842 pbc="F F F"
H      0.312504100000    -0.950805100000     0.081022300000    -0.320616588309    -0.350647075490    -1.991525236347
H     -0.690382800000     0.138042200000     0.788011200000    -0.185016597392     0.628737614315    -2.224004401663
H      0.014853600000     0.679301200000    -0.995212200000     1.023453401302    -0.961386966324     2.358421685038
H     -1.242765000000    -0.173161000000    -1.045721000000     0.170001353801    -2.196442173703     1.628793975091
C     -0.384384900000    -0.174194500000    -0.296535000000    -0.687255926664     2.879687179134     0.228725354418
5
Properties=species:S:1:pos:R:3:forces:R:3 energy=-1100.368924013686 pbc="F F F"
H      0.289179000000    -0.959336100000     0.048879300000     0.018151989683    -0.545588131830    -1.587810587620
H     -0.743794000000     0.137556500000     0.832837200000     0.518180170071     0.376820907639    -3.062441205574
H      0.056055900000     0.712291100000    -1.046233900000     0.302053222089    -1.718165527694     2.960574090667
H     -1.223847400000    -0.205993400000    -0.982035300000    -0.819050684617    -2.021195769058     0.488406793225
C     -0.383330500000    -0.173525800000    -0.298849100000    -0.019334697226     3.908025676809     1.201528019636
5
Properties=species:S:1:pos:R:3:forces:R:3 energy=-1100.468422990912 pbc="F F F"
H      0.266091300000    -0.975451100000    -0.005349200000     0.337585870449    -0.683399271632    -1.054152375355
H     -0.790150600000     0.142446600000     0.835625200000     1.043919384004     0.215766993512    -3.146670551468
H      0.101570600000     0.721713900000    -1.056399300000    -0.337791558717    -2.025412378560     3.023463278719
H     -1.216610900000    -0.267021000000    -0.911712700000    -1.917837414207    -1.740174172409    -0.779764225360
C     -0.382269600000    -0.168324500000    -0.299766000000     0.874380828807     4.232447498083     1.957689516202
5
Properties=species:S:1:pos:R:3:forces:R:3 energy=-1100.859361626850 pbc="F F F"
H      0.247495600000    -1.000785300000    -0.074343300000     0.458016351575    -0.525019304994    -0.516791774259
H     -0.822089000000     0.150456800000     0.795011100000     1.386338928759     0.144393164390    -2.636769334199
H      0.142465200000     0.703173400000    -1.024675500000    -0.871192660647    -1.968128195821     2.678472630609
H     -1.234796300000    -0.352201000000    -0.851253400000    -1.830831276689    -1.250738937842    -1.196385812927
C     -0.380273700000    -0.158234400000    -0.298487100000     0.857822923203     3.599390430132     1.671782823179
5
Properties=species:S:1:pos:R:3:forces:R:3 energy=-1101.338229230789 pbc="F F F"
H      0.234972200000    -1.032998300000    -0.150579400000     0.297425236051     0.021340157843     0.019848917897
H     -0.835019200000     0.160680500000     0.718401700000     1.364073173709     0.243432065606    -1.309617204660
H      0.171558700000     0.657785200000    -0.956125500000    -1.042428144058    -1.280512314687     1.731792375473
H     -1.276806000000    -0.454225800000    -0.806520000000    -0.297939456722    -0.231810678444    -0.783209503855
C     -0.377392100000    -0.144083100000    -0.295348600000    -0.321027964846     1.247345081414     0.341185415145
5
Properties=species:S:1:pos:R:3:forces:R:3 energy=-1101.325271712992 pbc="F F F"
H      0.226462300000    -1.064756800000    -0.226467200000     0.010387257552     0.696151944271     0.609762871559
H     -0.829702300000     0.174683800000     0.624867100000     0.619070265702     0.656711218813     1.197465676336
H      0.187098100000     0.595742400000    -0.864434400000    -0.312491901709     0.488509637360    -0.147375644281
H     -1.323111100000    -0.559231000000    -0.772917300000     1.196848611531     1.010752150730    -0.455239559952
C     -0.374881000000    -0.128638300000    -0.291826400000    -1.513659966875    -2.852227795308    -1.204510499527
5
Properties=species:S:1:pos:R:3:forces:R:3 energy=-1100.606470978149 pbc="F F F"
H      0.218237600000    -1.087055800000    -0.293800100000    -0.163316485079     1.132673871802     1.208521420760
H     -0.816474300000     0.198203500000     0.548816900000    -0.675223162965     1.288328468885     4.153514625099
H      0.199641500000     0.541609400000    -0.775545900000     1.460026750900     3.023051902182    -2.537833277116
H     -1.353631800000    -0.650424600000    -0.746080300000     1.896137301894     1.981600777399    -0.446292120278
C     -0.374132200000    -0.116611700000    -0.289687300000    -2.517778670951    -7.425706442335    -2.377910648465
5
Properties=species:S:1:pos:R:3:forces:R:3 energy=-1100.139541825600 pbc="F F F"
H      0.208015600000    -1.093977300000    -0.344347000000    -0.090914214616     1.159670457025     1.689934812862
H     -0.811400700000     0.238891500000     0.527903400000    -0.916701190022     1.183376029953     4.635390815804
H      0.231287600000     0.527613700000    -0.720223300000     2.072360725813     3.730208168811    -3.321454157508
H     -1.358329000000    -0.714329300000    -0.725636100000     1.959797820952     2.559533389429    -0.568008153081
C     -0.376304200000    -0.112981500000    -0.290232700000    -3.024594564195    -8.632890889351    -2.435966162210
5
Properties=species:S:1:pos:R:3:forces:R:3 energy=-1100.402510211114 pbc="F F F"
H      0.196840300000    -1.085109700000    -0.371478600000     0.254025011427     0.800178785995     1.958923645812
H     -0.817361400000     0.294674300000     0.568189000000     0.255259141037    -0.077493055105     2.147179833430
H      0.288615900000     0.562290900000    -0.708858900000     0.115185430283     1.637432882362    -2.069172557654
H     -1.336084000000    -0.742813500000    -0.713162500000     1.574235161908     2.764964547455    -0.712658427807
C     -0.381889100000    -0.119007800000    -0.293523400000    -2.198756166722    -5.125288848975    -1.324786714452
5
Properties=species:S:1:pos:R:3:forces:R:3 energy=-1100.536584247536 pbc="F F F"
H      0.189458800000    -1.065344500000    -0.371444200000     0.792825430401     0.181211364427     1.999547078813
H     -0.820116600000     0.349454800000     0.638688300000     1.211092524115    -1.327769194343    -0.381654581946
H      0.347672900000     0.619980900000    -0.726555300000    -1.895108860553    -0.545228177360    -0.765108936239
H     -1.292378100000    -0.733103800000    -0.710760200000     0.673217702349     2.506105861722    -0.944417684184
C     -0.390009500000    -0.131005900000    -0.298346900000    -0.781975374245    -0.814371276512     0.091377013220
5
Properties=species:S:1:pos:R:3:forces:R:3 energy=-1100.426355004460 pbc="F F F"
H      0.193089200000    -1.043031900000    -0.343625000000     1.240814478893    -0.416930119970     1.850268818050
H     -0.806791800000     0.386386300000     0.705165200000     1.438892281326    -1.968693838559    -1.830728432555
H      0.381555000000     0.671269900000    -0.755649200000    -2.793658060892    -1.720942319317    -0.018100567616
H     -1.240078900000    -0.689080200000    -0.721913200000    -0.921894818798     1.593107060530    -1.454421745587
C     -0.399013000000    -0.144063500000    -0.303071000000     1.035434742934     2.513202106980     1.452467707038
5
Properties=species:S:1:pos:R:3:forces:R:3 energy=-1100.410768594659 pbc="F F F"
H      0.213455600000    -1.026015700000    -0.290103600000     1.151751458693    -0.564357186318     1.513814233077
H     -0.773846100000     0.396320700000     0.746907500000     1.200756688630    -2.109641724454    -2.485588456953
H      0.377210200000     0.699265500000    -0.785367100000    -2.904009816868    -2.186363448553     0.400475058501
H     -1.201029800000    -0.623229500000    -0.753742400000    -2.707783208851     0.330232514855    -2.166925907193
C     -0.406747100000    -0.154285900000    -0.306088200000     3.258822079792     4.529975578269     2.738122228434
5
Properties=species:S:1:pos:R:3:forces:R:3 energy=-1100.790563895906 pbc="F F F"
H      0.249149800000    -1.016230300000    -0.215705100000     0.407211349290    -0.164756302958     0.905285491128
H     -0.724381500000     0.377156700000     0.754507500000     0.697951716619    -1.856799420570    -2.543541126564
H      0.332796000000     0.697189600000    -0.809677800000    -2.480189139908    -2.162040810819     0.632748535548
H     -1.197834200000    -0.551775100000    -0.814905700000    -2.792938151952    -0.166504653239    -2.009882914299
C     -0.410780000000    -0.159402500000    -0.305982400000     4.167655693549     4.349432700714     3.015338592119
5
Properties=species:S:1:pos:R:3:forces:R:3 energy=-1101.355109269882 pbc="F F F"
H      0.290340300000    -1.008624500000    -0.128940500000    -0.518283014205     0.351984049234     0.039132193056
H     -0.665397400000     0.332512700000     0.727379800000    -0.028950623772    -1.145940765111    -1.810879514658
H      0.254312500000     0.665503900000    -0.825441800000    -1.475556215161    -1.544616051264     0.579526696110
H     -1.231178500000    -0.481762700000    -0.902295200000    -0.840956485198     0.040931965404    -0.342573810957
C     -0.410144200000    -0.159589000000    -0.302513800000     2.863797760403     2.297023736932     1.534845858517
5
Properties=species:S:1:pos:R:3:forces:R:3 energy=-1101.400342756870 pbc="F F F"
H      0.324672800000    -0.996433000000    -0.041691000000    -1.120486841902     0.591559459809    -0.882711203675
H     -0.607106600000     0.272536400000     0.676385900000    -0.991983096242     0.167378828380     0.190827290973
H      0.156022900000     0.613274300000    -0.833811300000     0.249088492986     0.000102844134    -0.094822291715
H     -1.276622200000    -0.411643600000    -0.994331100000     0.947914384746    -0.075179062086     1.505689546476
C     -0.406194600000    -0.157157600000    -0.297312100000     0.916238391418    -0.684376290907    -0.718777653791
5
Properties=species:S:1:pos:R:3:forces:R:3 energy=-1100.709762678359 pbc="F F F"
H      0.343857600000    -0.976374500000     0.033390500000    -1.263594454614     0.476425451593    -1.643089309742
H     -0.562746700000     0.215359700000     0.629376400000    -1.957638094135     1.804811710742     3.146619129401
H      0.061675300000     0.562064000000    -0.844410400000     2.287253544185     2.299697684420    -1.450050869884
H     -1.310110000000    -0.343019500000    -1.066223300000     1.658361663668    -0.565385627660     2.594037596446
C     -0.401137800000    -0.155582500000    -0.292927400000    -0.724434081171    -4.015600641163    -2.647310857952
5
Properties=species:S:1:pos:R:3:forces:R:3 energy=-1100.138961406736 pbc="F F F"
H      0.345765800000    -0.949970900000     0.085807200000    -1.044433604675     0.079498515722    -2.106813510764
H     -0.545060900000     0.182335400000     0.624029300000    -2.305765488337     2.513356373181     4.077872764409
H     -0.002050100000     0.541564900000    -0.874355600000     3.169296260988     3.326544942150    -1.958049470671
H     -1.321194300000    -0.282401200000    -1.102609500000     1.652808080422    -1.141158512872     2.976257821130
C     -0.396843100000    -0.158475800000    -0.291495100000    -1.471905248398    -4.778035629913    -2.989216182037
5
Properties=species:S:1:pos:R:3:forces:R:3 energy=-1100.309890000162 pbc="F F F"
H      0.333328300000    -0.922664200000     0.109168700000    -0.578858209238    -0.499256849381    -2.183998033467
H     -0.558644200000     0.182746200000     0.671365800000    -1.818078604051     1.811959378067     1.541427883104
H     -0.023333100000     0.564482200000    -0.929074700000     2.490730663662     1.863227178956    -0.415850256561
H     -1.309505300000    -0.237671400000    -1.097868900000     1.305143484823    -1.639335498845     2.866625974093
C     -0.394194400000    -0.166564900000    -0.293420400000    -1.398525958660    -1.536748474999    -1.807794190633
5
Properties=species:S:1:pos:R:3:forces:R:3 energy=-1100.531721300740 pbc="F F F"
H      0.312988100000    -0.902435400000     0.102444000000     0.057284182739    -1.150157374613    -1.841012845973
H     -0.597291700000     0.208204500000     0.740178500000    -0.974345327230     0.774673440718    -1.262308902937
H     -0.010021400000     0.613072200000    -0.989399000000     1.494942334454    -0.064586116266     1.398577380727
H     -1.279913100000    -0.215687800000    -1.053574700000     0.609145806754    -1.956609652793     2.228838075970
C     -0.393185800000    -0.176409000000    -0.297473200000    -1.186667042247     2.396576858819    -0.523219532646
5
Properties=species:S:1:pos:R:3:forces:R:3 energy=-1100.523415841498 pbc="F F F"
H      0.293436900000    -0.898187400000     0.070249600000     0.665607236419    -1.678159159498    -1.242974205711
H     -0.649635200000     0.244820100000     0.793000400000    -0.159099875578    -0.022214332983    -2.703926553819
H      0.024473700000     0.661691700000    -1.031267900000     0.686895972195    -1.255366923880     2.309519299235
H     -1.242673400000    -0.220835500000    -0.979030200000    -0.842807679613    -2.049323639757     0.778118719213
C     -0.393514000000    -0.183572000000    -0.302133300000    -0.350441387222     5.005166900252     0.859776961753
5
Properties=species:S:1:pos:R:3:forces:R:3 energy=-1100.460644888331 pbc="F F F"
H      0.282675000000    -0.916832700000     0.020525800000     0.827586747754    -1.687003755037    -0.737238175876
H     -0.704366600000     0.281409200000     0.809130200000     0.522139669237    -0.571659119845    -3.118851213172
H      0.068697900000     0.693384200000    -1.041606400000    -0.019694651696    -1.872431728966     2.512173665638
H     -1.218229000000    -0.254532800000    -0.894348500000    -3.005465555237    -2.014870854806    -1.217931659038
C     -0.394121900000    -0.184990700000    -0.305738200000     1.675382367875     6.146068302788     2.562361603119
5
Properties=species:S:1:pos:R:3:forces:R:3 energy=-1100.697052784175 pbc="F F F"
H      0.282746200000    -0.958188600000    -0.039781500000     0.370598837521    -0.940920983622    -0.434002246244
H     -0.751952600000     0.310236300000     0.782320300000     1.055386504965    -0.905439757329    -2.875933368236
H      0.112734000000     0.699286000000    -1.017258300000    -0.640359001478    -2.099357311036     2.270952748917
H     -1.234000500000    -0.316313600000    -0.825208000000    -3.555887361374    -1.812010800134    -1.972910448060
C     -0.392846300000    -0.179325600000    -0.306455500000     2.770261020365     5.757677430054     3.012047579825
5
Properties=species:S:1:pos:R:3:forces:R:3 energy=-1101.233316548314 pbc="F F F"
H      0.287716900000    -1.012232600000    -0.106135800000    -0.337688714583     0.217309655524    -0.113848456538
H     -0.785022300000     0.326696500000     0.715983200000     1.348749397716    -0.960512791183    -1.971933428786
H      0.148097000000     0.676370600000    -0.961639700000    -0.997228147086    -1.811702267732     1.559322762452
H     -1.295691300000    -0.402564500000    -0.781543900000    -1.097398333778    -0.896595161790    -1.043816539870
C     -0.388616300000    -0.167081100000    -0.303831400000     1.083720063932     3.451192032778     1.570584195145
5
Properties=species:S:1:pos:R:3:forces:R:3 energy=-1101.390207331918 pbc="F F F"
H      0.288179700000    -1.063430500000    -0.173901000000    -0.869341466232     1.221685469936     0.352344003704
H     -0.799810200000     0.330245700000     0.623126200000     1.110510960886    -0.543274138811    -0.121150390065
H      0.170211300000     0.629059400000    -0.884972500000    -0.727879359666    -0.683656381968     0.172366768887
H     -1.372791400000    -0.500870300000    -0.752846700000     1.482806726621     0.432665272499    -0.289300549451
C     -0.383136200000    -0.150930100000    -0.299371900000    -0.996096861610    -0.427265955455    -0.114362677209
5
Properties=species:S:1:pos:R:3:forces:R:3 energy=-1100.845357831260 pbc="F F F"
H      0.276883500000    -1.098080300000    -0.236641800000    -1.049987187921     1.754058130523     0.895206765978
H     -0.800051300000     0.326979300000     0.529865000000     0.056975650336     0.515814754985     2.751132011408
H      0.183290100000     0.573348400000    -0.806697200000     0.483110320315     1.378317086293    -1.848931844305
H     -1.430850300000    -0.593495300000    -0.728983900000     2.670605054344     1.475041994490    -0.180902832024
C     -0.378730900000    -0.135368000000    -0.295029100000    -2.160909525343    -5.123489076627    -1.616504101056
5
Properties=species:S:1:pos:R:3:forces:R:3 energy=-1100.119250839269 pbc="F F F"
H      0.251311200000    -1.108804000000    -0.286903500000    -0.859879805887     1.735443342237     1.390298427925
H     -0.799627300000     0.330897300000     0.474453000000    -1.019802434538     1.461415146711     4.930759169172
H      0.203267800000     0.536530100000    -0.753734800000     1.699756427676     3.003974315292    -3.323716728460
H     -1.452607200000    -0.665938800000    -0.707946500000     2.897942012951     2.115143885633    -0.338820000059
C     -0.376810800000    -0.125700500000    -0.292550100000    -2.717964778134    -8.315719579537    -2.658572290645
5
Properties=species:S:1:pos:R:3:forces:R:3 energy=-1100.166504771669 pbc="F F F"
H      0.214157500000    -1.095901000000    -0.317869000000    -0.268988832950     1.130874099454     1.738168711792
H     -0.811424400000     0.353254300000     0.484035700000    -0.504244789889     0.827792436023     3.911265267036
H      0.244520600000     0.538749700000    -0.744833200000     0.947348742008     2.250023967611    -2.830013462325
H     -1.434339000000    -0.709103100000    -0.691692000000     2.620108584461     2.454323840162    -0.539366061712
C     -0.378040100000    -0.125303300000    -0.293048300000    -2.794326547764    -6.662397278444    -2.279797344456
5
Properties=species:S:1:pos:R:3:forces:R:3 energy=-1100.548871821010 pbc="F F F"
H      0.173750800000    -1.067859000000    -0.324715100000     0.750196536783    -0.057489871007     1.898759827316
H     -0.829325100000     0.386223600000     0.546395900000     0.825735553339    -0.636708034714     1.178593777714
H      0.297670500000     0.571069900000    -0.774372600000    -0.954650675535     0.280918752515    -1.303395134542
H     -1.379906100000    -0.718233600000    -0.683012200000     1.865386905774     2.487799605837    -0.768348526466
C     -0.382520000000    -0.132454800000    -0.296140000000    -2.486668320361    -2.074469030564    -1.005404255753
5
Properties=species:S:1:pos:R:3:forces:R:3 energy=-1100.608498498522 pbc="F F F"
H      0.144025600000    -1.040848300000    -0.305145600000     1.880556415566    -1.386647461162     1.909301351070
H     -0.836454600000     0.410996400000     0.626164100000     1.556957347366    -1.562613774746    -0.909090724093
H      0.338312700000     0.608073300000    -0.822573000000    -2.217730909478    -1.140798558402    -0.057284182739
H     -1.300312100000    -0.693179800000    -0.685326800000     0.271868468707     1.943805558087    -1.211915277188
C     -0.389864400000    -0.142095400000    -0.300421600000    -1.492319809033     2.146459924491     0.268577456414
5
Properties=species:S:1:pos:R:3:forces:R:3 energy=-1100.501760748386 pbc="F F F"
H      0.139696200000    -1.032009300000    -0.259001400000     2.214954117855    -1.673942549996     1.760537310977
H     -0.822587200000     0.414655600000     0.694288700000     1.600871792661    -1.831756873897    -2.072720680283
H      0.348920900000     0.629987100000    -0.872117400000    -2.609875593110    -1.805634463815     0.729936242349
H     -1.218296000000    -0.642006700000    -0.705247000000    -2.415654445710     0.513706450234    -2.168314303004
C     -0.398786800000    -0.149362800000    -0.304366300000     1.209806972438     4.797833125743     1.750561429961
5
Properties=species:S:1:pos:R:3:forces:R:3 energy=-1100.611561684246 pbc="F F F"
H      0.164808900000    -1.044797900000    -0.188684000000     1.278815386473    -0.507638646317     1.209549862102
H     -0.786763600000     0.393166900000     0.734106400000     1.236546447325    -1.654710696905    -2.594551817117
H      0.323694200000     0.627264500000    -0.911801600000    -2.371071513542    -1.896445834297     1.194020397841
H     -1.169467100000    -0.583643600000    -0.755561400000    -4.396123937632    -0.825324176802    -3.011121982617
C     -0.406229300000    -0.151236500000    -0.306239700000     4.251885039443     4.884119354321     3.202052117724
5
Properties=species:S:1:pos:R:3:forces:R:3 energy=-1101.145867044934 pbc="F F F"
H      0.207352600000    -1.064483500000    -0.101957000000    -0.080475534997     0.880140100321     0.226925582070
H     -0.733907100000     0.348945000000     0.738322200000     0.617836136092    -1.090970575392    -2.465893805257
H      0.265917900000     0.598624300000    -0.935157600000    -1.559322762452    -1.425265433547     1.303395134542
H     -1.177648800000    -0.534628400000    -0.845344000000    -2.861689455652    -0.506353094640    -1.740688393080
C     -0.409044700000    -0.147659900000    -0.304558000000     3.883857305277     2.142191892922     2.676158637590
5
Properties=species:S:1:pos:R:3:forces:R:3 energy=-1101.412956866976 pbc="F F F"
H      0.249318700000    -1.072698400000    -0.012124500000    -1.007306872235     1.579840167221    -0.826763994681
H     -0.672687000000     0.289966000000     0.709147900000    -0.249602713657    -0.077698743374    -1.340367600780
H      0.187038100000     0.550836300000    -0.940996700000    -0.121973143139    -0.255156296903     0.772616558034
H     -1.224584200000    -0.492409100000    -0.957967900000    -0.120481903193     0.145267339531     0.803006999685
C     -0.407486800000    -0.141628800000    -0.299885700000     1.499158943956    -1.392458154743     0.591610881876
5
Properties=species:S:1:pos:R:3:forces:R:3 energy=-1100.922026727725 pbc="F F F"
H      0.277861000000    -1.059608100000     0.066394000000    -1.355742798841     1.578811725879    -1.664326623450
H     -0.615215500000     0.230432200000     0.662805300000    -1.313628125893     1.364176017843     1.091587640197
H      0.106993900000     0.500284300000    -0.937058200000     1.734569167096     1.555877483957    -0.592947855620
H     -1.274894600000    -0.448992800000    -1.060435300000     1.325969421995     0.142233437572     2.536753413708
C     -0.404105600000    -0.137209200000    -0.294495100000    -0.391476196760    -4.641767152124    -1.370655198297
5
Properties=species:S:1:pos:R:3:forces:R:3 energy=-1100.181694711576 pbc="F F F"
H      0.287914600000    -1.024961900000     0.121983700000    -1.268633817189     1.091227685727    -2.178958670892
H     -0.575873300000     0.189826600000     0.631882000000    -2.132370278108     2.610955456519     3.480142656550
H      0.050531900000     0.471017700000    -0.941261600000     2.962939505753     2.884623697575    -1.741202613751
H     -1.307826200000    -0.403945100000    -1.128533700000     1.740996925482    -0.186970635941     3.287926969765
C     -0.401089100000    -0.138114700000    -0.290675600000    -1.302778069737    -6.400041892148    -2.847702653404
5
Properties=species:S:1:pos:R:3:forces:R:3 energy=-1100.115548458087 pbc="F F F"
H      0.280594500000    -0.975463700000     0.147516400000    -0.833448863403     0.226102828997    -2.292652861229
H     -0.565396000000     0.184264900000     0.645870400000    -2.141060607446     2.629724511007     2.843537465969
H      0.033582400000     0.479749800000    -0.967396400000     2.606687424951     2.308593702027    -0.968380367448
H     -1.316829800000    -0.361566700000    -1.151228500000     1.739197153134    -0.570373568168     3.468109892850
C     -0.399517100000    -0.146178000000    -0.290074800000    -1.371117996901    -4.593944629729    -3.050408441874
5
Properties=species:S:1:pos:R:3:forces:R:3 energy=-1100.501647004792 pbc="F F F"
H      0.262062300000    -0.923222100000     0.141577000000    -0.003702388831    -0.997845211891    -1.863895665829
H     -0.584139500000     0.214278500000     0.697046800000    -1.503941196195     1.605345512498     0.036612511768
H      0.052227900000     0.519563100000    -1.005904100000     1.454216057319     0.667561274969     0.809794712541
H     -1.301730600000    -0.327137000000    -1.125835100000     1.493245406240    -0.923180370475     3.210793869130
C     -0.399562900000    -0.159402300000    -0.292953300000    -1.439715034399    -0.351829783033    -2.192791206939
5
Properties=species:S:1:pos:R:3:forces:R:3 energy=-1100.702090428069 pbc="F F F"
H      0.243868000000    -0.885155900000     0.110150500000     1.117092985474    -2.352405303188    -0.943080710439
H     -0.623773900000     0.266659400000     0.749744100000    -0.702219748188     0.442384043179    -2.069223979721
H      0.091462400000     0.569195300000    -1.033924500000     0.443669594857    -0.643341481369     1.948382122058
H     -1.266362000000    -0.305586200000    -1.056305300000     0.660567873844    -1.237626310734     2.218090863948
C     -0.401313800000    -0.173057600000    -0.298406200000    -1.518905017719     3.790886207977    -1.154168295846
5
Properties=species:S:1:pos:R:3:forces:R:3 energy=-1100.669055261208 pbc="F F F"
H      0.240692700000    -0.879134900000     0.065318200000     1.684586917884    -2.925401396777    -0.193501238461
H     -0.673328700000     0.325525800000     0.774941100000     0.032910122938    -0.484498716127    -2.931469200694
H      0.137209300000     0.610488400000    -1.035643200000    -0.313777453386    -1.389167142449     2.253417824039
H     -1.223393100000    -0.301391500000    -0.957227900000    -1.564362125027    -1.576549154927    -0.030441863718
C     -0.404678100000    -0.182408400000    -0.305113800000     0.160591115524     6.375924942683     0.902560121572
5
Properties=species:S:1:pos:R:3:forces:R:3 energy=-1100.582686594081 pbc="F F F"
H      0.259418200000    -0.912188200000     0.016914200000     0.905131224927    -1.970956409511    -0.113745612404
H     -0.722572500000     0.377934700000     0.760038800000     0.640204735276    -1.127994463697    -2.951935183396
H      0.178734100000     0.632770700000    -1.006411800000    -0.910119165434    -1.739042886933     2.020887236656
H     -1.203665600000    -0.319377300000    -0.859255300000    -4.621866812159    -1.959746398885    -2.652144532259
C     -0.407601300000    -0.184476000000    -0.310659600000     3.986855705659     6.797431626624     3.697195201738
5
Properties=species:S:1:pos:R:3:forces:R:3 energy=-1100.919701514789 pbc="F F F"
H      0.290160400000    -0.971998800000    -0.033226100000    -0.446394964412    -0.287706465371    -0.178640261072
H     -0.763037100000     0.414905500000     0.704530400000     1.079297766162    -1.456684316539    -2.324894497295
H      0.207800200000     0.631152800000    -0.949359800000    -1.247499347615    -1.684586917884     1.362479089629
H     -1.244047100000    -0.364096500000    -0.794925700000    -4.022799730555    -1.724181909544    -2.587404149792
C     -0.406176200000    -0.178747600000    -0.312159900000     4.637601964689     5.153108187271     3.728665506798
5
Properties=species:S:1:pos:R:3:forces:R:3 energy=-1101.317400819585 pbc="F F F"
H      0.315170500000    -1.036253600000    -0.085524600000    -1.399811510337     1.084337128737     0.024476903935
H     -0.788767200000     0.431975300000     0.617286400000     1.179416530787    -1.345818339892    -0.979384689805
H      0.220037600000     0.606671300000    -0.873822600000    -1.026590147394    -0.998462276696     0.190107382034
H     -1.336618400000    -0.431694800000    -0.764980300000    -0.113231391733    -0.510621126208    -0.954033610730
C     -0.399710600000    -0.167133000000    -0.309478000000     1.360165096610     1.770307503724     1.719039702835
5
Properties=species:S:1:pos:R:3:forces:R:3 energy=-1101.025745646696 pbc="F F F"
H      0.321242300000    -1.086031500000    -0.137262500000    -1.789127980279     1.858136394315     0.416415899299
H     -0.798753700000     0.430998900000     0.517367300000     0.622515544197    -0.551553091612     1.239991725820
H      0.218915000000     0.569204000000    -0.796275700000     0.038772238586     0.508667087659    -1.511397395923
H     -1.432645100000    -0.506570500000    -0.749615300000     2.504203245239     0.656968329148    -0.201265970592
C     -0.391564500000    -0.153516900000    -0.304722700000    -1.376723002213    -2.472321563643     0.056307163464
5
Properties=species:S:1:pos:R:3:forces:R:3 energy=-1100.287424007746 pbc="F F F"
H      0.302779800000    -1.110429000000    -0.183127100000    -1.721919338592     2.071126596203     0.848104152523
H     -0.800821000000     0.423061000000     0.435349700000    -0.544559690488     0.813497101371     3.813460495430
H      0.218827300000     0.539127600000    -0.739795100000     1.432258834671     2.154738877292    -3.073394105864
H     -1.495620100000    -0.572803000000    -0.737835500000     3.408511717093     1.366438588795    -0.120944701797
C     -0.384886000000    -0.142794200000    -0.299893700000    -2.574445788885    -6.405595475394    -1.467585794762
5
Properties=species:S:1:pos:R:3:forces:R:3 energy=-1100.003550747032 pbc="F F F"
H      0.260704700000    -1.106503800000    -0.217175500000    -1.211555322719     1.683867008945     1.229913000670
H     -0.809728600000     0.425500500000     0.404674100000    -1.043045208863     1.317793313328     4.658530745995
H      0.237058800000     0.537197500000    -0.724607400000     1.426705251425     2.165846043784    -3.213364972484
H     -1.511782800000    -0.620268700000    -0.727939500000     3.484256421917     1.753595331920    -0.223531725642
C     -0.381120300000    -0.139261700000    -0.296743100000    -2.656875362431    -6.921101697976    -2.452112691277
5
Properties=species:S:1:pos:R:3:forces:R:3 energy=-1100.401926526884 pbc="F F F"
H      0.202331400000    -1.079933700000    -0.234101600000    -0.128658011860     0.493394733733     1.527029704319
H     -0.831331800000     0.444247100000     0.435987800000    -0.053376105640     0.144496008524     2.905706745082
H      0.273354100000     0.563593500000    -0.752740800000    -0.115031164081     0.551553091612    -1.974504532140
H     -1.479629500000    -0.643395100000    -0.721196000000     3.120188186916     1.943085649148    -0.355275061528
C     -0.380494800000    -0.143423600000    -0.296334000000    -2.822968639133    -3.132220950615    -2.103213966068
5
Properties=species:S:1:pos:R:3:forces:R:3 energy=-1100.706513366754 pbc="F F F"
H      0.142782200000    -1.047388000000    -0.229720400000     1.441309118479    -1.423465661199     1.756115013207
H     -0.853538200000     0.464920100000     0.507440800000     1.120692530170    -1.186924152582     0.587445694442
H      0.308298500000     0.597894400000    -0.808374700000    -1.519316394255    -0.994451355463    -0.550781760606
H     -1.404448800000    -0.639592400000    -0.719533000000     2.152733416676     1.872740261368    -0.591199505339
C     -0.383220200000    -0.151174500000    -0.298349500000    -3.195932891740     1.732152329943    -1.201887974106
5
Properties=species:S:1:pos:R:3:forces:R:3 energy=-1100.730056385828 pbc="F F F"
H      0.102863100000    -1.033980700000    -0.200867700000     2.508934075412    -2.607407333890     1.858033550180
H     -0.860883600000     0.469881900000     0.587998800000     1.623188969778    -1.784448572174    -1.039239975899
H      0.322930200000     0.619128300000    -0.872166000000    -2.127073805198    -1.829545725012     0.514734891576
H     -1.300532700000    -0.610274200000    -0.726638600000    -0.031007506456     1.178593777714    -1.264982850426
C     -0.389550000000    -0.157043800000    -0.301763600000    -1.974607376274     5.042910697496    -0.068597037499
5
Properties=species:S:1:pos:R:3:forces:R:3 energy=-1100.692673383708 pbc="F F F"
H      0.096122200000    -1.054137100000    -0.146565700000     2.013071082458    -1.464037672133     1.479207181925
H     -0.846167400000     0.450539600000     0.654765800000     1.547752797356    -1.784499994241    -2.003249467644
H      0.308535000000     0.615464900000    -0.929166400000    -2.069481090056    -2.032457201751     1.217108905965
H     -1.198761200000    -0.565594900000    -0.752456500000    -3.484564954319    -0.397029780006    -2.705057839295
C     -0.397901600000    -0.157252100000    -0.305155500000     1.993016476293     5.677921803997     2.011836952848
5
Properties=species:S:1:pos:R:3:forces:R:3 energy=-1100.842352605787 pbc="F F F"
H      0.116592700000    -1.093709500000    -0.072272900000     0.680005415205     0.627246374370     0.513552184033
H     -0.810171100000     0.406673800000     0.694090000000     1.123417899726    -1.371117996901    -2.421979359962
H      0.265806300000     0.584006600000    -0.969528300000    -1.444548708706    -1.651059730141     1.556340282560
H     -1.143454400000    -0.525768400000    -0.815340300000    -4.915692503514    -1.336459523682    -3.313792269512
C     -0.404044000000    -0.151028100000    -0.306206100000     4.556715053156     3.731133766018     3.665827740813
5
Properties=species:S:1:pos:R:3:forces:R:3 energy=-1101.233280085057 pbc="F F F"
H      0.146996900000    -1.125527300000     0.009077300000    -0.356714879407     1.927299074551    -0.581120780190
H     -0.758726100000     0.344059900000     0.700312900000     0.445932165809    -0.563534433245    -2.123114306032
H      0.203527500000     0.530174800000    -0.988746400000    -0.239112611971    -0.628223393644     1.324118227580
H     -1.151823400000    -0.502328500000    -0.920763300000    -2.388760704621    -0.522242513371    -0.990286168028
C     -0.405328500000    -0.140625900000    -0.303272500000     2.538553186056    -0.213658688761     2.370762981140
5
Properties=species:S:1:pos:R:3:forces:R:3 energy=-1101.086931808741 pbc="F F F"
H      0.173041900000    -1.131489800000     0.082558900000    -0.857668657002     2.261645354774    -1.455964407600
H     -0.701355100000     0.274041600000     0.678070600000    -0.499925336254     0.654911446464    -0.741146252975
H      0.138440400000     0.468223900000    -0.990430500000     1.404696606711     0.949045670222     0.257418867855
H     -1.194064900000    -0.486496200000    -1.039784400000     0.062426389448     0.188204765551     1.713331853388
C     -0.403664000000    -0.130453000000    -0.297617800000    -0.109580424970    -4.054218613548     0.226668471735
5
Properties=species:S:1:pos:R:3:forces:R:3 energy=-1100.417655524348 pbc="F F F"
H      0.187538200000    -1.106537600000     0.136025200000    -0.954856363803     1.931052885449    -2.010140024634
H     -0.651146000000     0.213442800000     0.646715600000    -1.556288860493     2.054003047862     1.623086125644
H      0.092763800000     0.419427100000    -0.988936700000     2.785841906694     2.365260819961    -1.088862270641
H     -1.237185100000    -0.468769000000    -1.136450500000     1.080583317839     0.288117841908     3.108978176290
C     -0.401984500000    -0.124932000000    -0.291660900000    -1.355280000237    -6.639000237918    -1.632496363921
5
Properties=species:S:1:pos:R:3:forces:R:3 energy=-1100.021901289425 pbc="F F F"
H      0.189016300000    -1.055109100000     0.161758200000    -0.735798357998     1.099609482663    -2.198190523984
H     -0.622158500000     0.180930800000     0.636994800000    -2.125428299051     2.870534051192     3.002945873950
H      0.084473200000     0.402128700000    -1.000969000000     2.838240993059     2.463579812238    -1.057134855246
H     -1.265934400000    -0.447252400000    -1.190602600000     1.411844274036     0.158277122504     3.611166083496
C     -0.401776100000    -0.126957600000    -0.287625900000    -1.388858610047    -6.592000468597    -3.358529467881
5
Properties=species:S:1:pos:R:3:forces:R:3 energy=-1100.272506725927 pbc="F F F"
H      0.180628300000    -0.988894600000     0.157286800000    -0.132000446221    -0.263126717302    -1.881430590707
H     -0.621848800000     0.187179400000     0.665696800000    -1.812062222201     2.515156145530     1.526104107111
H      0.114474100000     0.417897800000    -1.026017800000     1.686746644702     1.380785345514     0.410913738120
H     -1.275141900000    -0.423560700000    -1.194681000000     1.520396257664    -0.015683730463     3.660119891366
C     -0.403187800000    -0.136440300000    -0.287393000000    -1.263080233943    -3.617285309480    -3.715758567958
5
Properties=species:S:1:pos:R:3:forces:R:3 energy=-1100.638760825147 pbc="F F F"
H      0.170974100000    -0.926965200000     0.127233600000     0.941640892561    -2.096117720809    -0.938041347865
H     -0.646380800000     0.227803700000     0.714653700000    -1.031629509969     1.432824477409    -0.956707558218
H      0.167960500000     0.452969000000    -1.045601600000     0.371935811265     0.217258233457     1.707881114276
H     -1.263321000000    -0.400116300000    -1.148025700000     1.375694560872    -0.219572226476     3.233830955186
C     -0.406145200000    -0.150050600000    -0.291432600000    -1.657230378192     0.665710080553    -3.046808897178
5
Properties=species:S:1:pos:R:3:forces:R:3 energy=-1100.824028458439 pbc="F F F"
H      0.174415200000    -0.893872700000     0.084200900000     1.869397827007    -3.423835493085     0.097033440600
H     -0.685367500000     0.288444000000     0.751423200000    -0.240706696051     0.284466875145    -2.502454894958
H      0.227043300000     0.491559200000    -1.042266600000    -0.632028626609    -0.559112135475     2.181684040448
H     -1.233138100000    -0.379896300000    -1.057176800000     0.414718971085    -0.560243420951     1.844920923072
C     -0.411000100000    -0.162944800000    -0.298994700000    -1.411021520963     4.258621330232    -1.620874976759
5
Properties=species:S:1:pos:R:3:forces:R:3 energy=-1100.854317180109 pbc="F F F"
H      0.202221400000    -0.906281500000     0.041435200000     1.349263618387    -2.791704022342     0.287192244700
H     -0.727896000000     0.353339800000     0.754387800000     0.408136946497    -0.638559229130    -2.985770903542
H      0.277608800000     0.522713600000    -1.009116700000    -1.344378522014    -0.992857271383     2.013585303129
H     -1.199303600000    -0.367927400000    -0.942353700000    -2.320626465726    -1.235877960453    -1.041451124784
C     -0.417194900000    -0.171057600000    -0.308257200000     1.907501578721     5.658792795039     1.726958701167
5
Properties=species:S:1:pos:R:3:forces:R:3 energy=-1100.757923838370 pbc="F F F"
H      0.247626400000    -0.956270700000     0.002115800000    -0.233404762524    -0.893355571563    -0.007610465929
H     -0.764903200000     0.409652600000     0.716424800000     0.887390611780    -1.250944626110    -2.689785485369
H      0.309667100000     0.540280500000    -0.948259500000    -1.766348004558    -1.141929843878     1.410507300292
H     -1.198659600000    -0.373394600000    -0.841939500000    -5.252764153293    -1.923853796056    -3.566634573396
C     -0.420989800000    -0.172687900000    -0.315488200000     6.365383418929     5.209775305205     4.853934600939
5
Properties=species:S:1:pos:R:3:forces:R:3 energy=-1101.059401777386 pbc="F F F"
H      0.290247100000    -1.019223800000    -0.036961300000    -1.477150299241     0.697951716619    -0.050959268487
H     -0.789748600000     0.448889200000     0.641585800000     1.128714372636    -1.477870208180    -1.702276108963
H      0.317582600000     0.542316600000    -0.868109400000    -1.670960070105    -0.886259326304     0.405668687277
H     -1.264983000000    -0.404142000000    -0.786792000000    -3.199532436437    -1.332088647979    -2.590746584153
C     -0.417920100000    -0.168367900000    -0.317460300000     5.218671322812     2.998369309979     3.938467540527
5
Properties=species:S:1:pos:R:3:forces:R:3 energy=-1101.148734852907 pbc="F F F"
H      0.312997100000    -1.073211800000    -0.076437100000    -2.036313856783     1.609202167530     0.173755164699
H     -0.799317300000     0.468045700000     0.543755700000     0.910376275770    -1.167178078820     0.016506483536
H      0.303054800000     0.532661800000    -0.782776300000    -0.766908708587    -0.019694651696    -1.014608805762
H     -1.373805300000    -0.452704300000    -0.767289800000     0.926265694501    -0.025813877679    -0.869649998634
C     -0.409010700000    -0.160636300000    -0.314909400000     0.966374906831    -0.396412715201     1.694202844430
5
Properties=species:S:1:pos:R:3:forces:R:3 energy=-1100.597994087175 pbc="F F F"
H      0.307806800000    -1.105275900000    -0.113380800000    -2.088507254880     1.982217842204     0.490103721439
H     -0.796919600000     0.471685800000     0.446916400000     0.051422067090    -0.175246404644     2.339806896751
H      0.278596700000     0.523346200000    -0.711824400000     0.764234761099     1.315016521705    -2.544261035503
H     -1.472248400000    -0.502227000000    -0.761337400000     3.077405027097     0.836225655025    -0.225177231789
C     -0.398797600000    -0.153390500000    -0.310308300000    -1.804914554876    -3.958162192223    -0.060266662630
5
Properties=species:S:1:pos:R:3:forces:R:3 energy=-1100.040935653949 pbc="F F F"
H      0.273858900000    -1.110167600000    -0.143461900000    -1.706338452263     1.832373938702     0.809177647736
H     -0.793998200000     0.473044200000     0.382350100000    -0.918603806504     0.890990156477     4.179431346913
H      0.264040000000     0.531653500000    -0.675598900000     1.604574181491     1.955324101116    -3.302376570618
H     -1.529327000000    -0.540555100000    -0.759119000000     3.716838431367     1.253978528068    -0.107626386420
C     -0.390519100000    -0.150655200000    -0.305764200000    -2.696676042359    -5.932512458162    -1.578606037611
5
Properties=species:S:1:pos:R:3:forces:R:3 energy=-1100.134316423141 pbc="F F F"
H      0.216659000000    -1.090285800000    -0.162227200000    -0.765931689313     0.909964899233     1.117555784077
H     -0.802592600000     0.485185800000     0.373734200000    -0.816531003330     0.614236591396     3.936719190246
H      0.269846000000     0.565242100000    -0.684019900000     0.775856148261     0.925237253159    -2.753548848561
H     -1.535072200000    -0.561586500000    -0.758533100000     3.700589058166     1.436269755904    -0.114568365478
C     -0.385342300000    -0.154482200000    -0.302982900000    -2.894651000657    -3.885554233491    -2.186260604419
5
Properties=species:S:1:pos:R:3:forces:R:3 energy=-1100.532339543431 pbc="F F F"
H      0.149497900000    -1.058860700000    -0.165309100000     0.791282768388    -0.984269786179     1.449999447817
H     -0.821490600000     0.504634700000     0.418338500000     0.205996800764    -0.716103706302     2.101774148189
H      0.285909800000     0.611045900000    -0.730204900000    -0.603695067642    -0.757241359974    -1.511140285588
H     -1.489480600000    -0.562676700000    -0.759603000000     3.235013662729     1.460695237772    -0.177149021127
C     -0.383637100000    -0.162593000000    -0.302678000000    -3.628701008374     0.997073880884    -1.863792821694
5
Properties=species:S:1:pos:R:3:forces:R:3 energy=-1100.762340246321 pbc="F F F"
H      0.093294900000    -1.041188300000    -0.148133800000     2.187083357492    -2.738790715306     1.712766210650
H     -0.837785700000     0.514559800000     0.492456700000     1.041656813052    -1.689780546660     0.259732860874
H      0.294217400000     0.646893000000    -0.797614000000    -1.437915262051    -1.937120689365    -0.293157204483
H     -1.399515900000    -0.543613000000    -0.763412200000     1.937017845231     1.208778531096    -0.481104859699
C     -0.386146500000    -0.169605400000    -0.304541000000    -3.728305552328     5.157067686437    -1.198442695611
5
Properties=species:S:1:pos:R:3:forces:R:3 energy=-1100.904620148313 pbc="F F F"
H      0.065889500000    -1.058871400000    -0.107595100000     2.123988481172    -2.116532281444     1.451850642233
H     -0.840160700000     0.501672200000     0.570856000000     1.323244052439    -1.951518868151    -1.051786960269
H      0.283163300000     0.656453600000    -0.869448300000    -1.608636524792    -2.399662182844     0.656968329148
H     -1.284335800000    -0.508373000000    -0.774819000000    -0.963135316605     0.317222731881    -1.525487042306
C     -0.392735600000    -0.170883300000    -0.307716000000    -0.875614958417     6.150644866759     0.468403609127
5
Properties=species:S:1:pos:R:3:forces:R:3 energy=-1100.856877499419 pbc="F F F"
H      0.066961400000    -1.104204700000    -0.047546100000     1.007358294303     0.148249819422     0.526819077342
H     -0.824493500000     0.462027700000     0.635071700000     1.181421991404    -1.708909555618    -1.882356187914
H      0.250206400000     0.633147700000    -0.932438700000    -1.232021305421    -2.217422377076     1.294036318332
H     -1.183865100000    -0.469449000000    -0.808624400000    -4.601812205994    -1.096369892436    -3.260261897671
C     -0.400157200000    -0.165140900000    -0.310199800000     3.644590427105     4.874194895372     3.321865534045
5
Properties=species:S:1:pos:R:3:forces:R:3 energy=-1100.978649812448 pbc="F F F"
H      0.082389000000    -1.148298700000     0.019753300000     0.043348802557     1.818541402655    -0.526870499409
H     -0.792585700000     0.398893000000     0.673523100000     0.769788344344    -1.078372168954    -2.185746383748
H      0.200596900000     0.579529700000    -0.977795200000    -0.339745597267    -1.396726186312     1.499981697029
H     -1.143022900000    -0.444344200000    -0.885416300000    -4.485752600571    -1.321032903554    -2.817569322089
C     -0.403742400000    -0.153823500000    -0.308999500000     4.012001096466     1.977229901696     4.030050242015
5
Properties=species:S:1:pos:R:3:forces:R:3 energy=-1101.127669430530 pbc="F F F"
H      0.098990400000    -1.168186600000     0.079970000000    -0.449274600170     2.426298813597    -1.341293197988
H     -0.750159900000     0.321101500000     0.682255800000     0.127938102921    -0.067054375486    -1.715645846407
H      0.146719700000     0.507029200000    -1.002931200000     0.959998570512    -0.010695789955     1.038057268356
H     -1.161482100000    -0.436396200000    -0.998322800000    -1.492782607637    -0.459610435655     0.228776776486
C     -0.402970800000    -0.140281700000    -0.303373700000     0.854120534373    -1.889401011106     1.790002155420
5
Properties=species:S:1:pos:R:3:forces:R:3 energy=-1100.738925664989 pbc="F F F"
H      0.109693900000    -1.154974300000     0.121759900000    -0.596136023780     2.264062191927    -1.847697714695
H     -0.706222300000     0.242727400000     0.668168700000    -0.742637492921     1.235569428050    -0.237004307220
H      0.106302600000     0.434529800000    -1.014273900000     2.251155253087     1.477047455107    -0.006633446655
H     -1.202503000000    -0.435423400000    -1.109211900000     0.355892126333     0.042166095014     2.492324747741
C     -0.401066500000    -0.128885600000    -0.295611600000    -1.268171018585    -5.019307968702    -0.400320792299
5
Properties=species:S:1:pos:R:3:forces:R:3 energy=-1100.205055686478 pbc="F F F"
H      0.112356500000    -1.110733000000     0.138065000000    -0.470203381475     1.504609683067    -2.011682686647
H     -0.672678300000     0.181544000000     0.651408300000    -1.583902510521     2.422802113035     1.702430375165
H      0.096511900000     0.381804400000    -1.025192000000     2.779465570375     2.207240807792    -0.603643645575
H     -1.239891900000    -0.434285300000    -1.186780300000     1.039291397966     0.175297826711     3.425686687501
C     -0.400490900000    -0.123214200000    -0.288318200000    -1.764291121874    -6.310001852673    -2.512790730443
5
Properties=species:S:1:pos:R:3:forces:R:3 energy=-1100.084283936114 pbc="F F F"
H      0.108814300000    -1.046147400000     0.126716400000    -0.010798634089     0.114465521343    -1.724233331611
H     -0.660584500000     0.153380400000     0.656751300000    -1.816998740642     2.851096509832     2.202664243821
H      0.124230000000     0.358691700000    -1.042929300000     2.148002586504     1.878602377017     0.094873713782
H     -1.263156300000    -0.430808200000    -1.217121100000     1.320672949085     0.198334912768     3.687784963461
C     -0.401928800000    -0.124708200000    -0.283952400000    -1.640775316723    -5.042550743027    -4.260935323251
5
Properties=species:S:1:pos:R:3:forces:R:3 energy=-1100.350111966186 pbc="F F F"
H      0.105635200000    -0.980707100000     0.091890500000     0.868107336621    -1.873203059972    -0.884510976023
H     -0.672977400000     0.164003500000     0.690274300000    -1.264365785621     2.330910879144     0.570630678503
H      0.181325500000     0.361424800000    -1.058780700000     0.907239529677     1.133753735211     1.280049516083
H     -1.268076800000    -0.424572200000    -1.196234100000     1.450359402287     0.199466198244     3.566685995463
C     -0.405348300000    -0.131934000000    -0.284442200000    -1.961031950563    -1.790979174694    -4.532855214026
5
Properties=species:S:1:pos:R:3:forces:R:3 energy=-1100.681457394616 pbc="F F F"
H      0.114630000000    -0.941124200000     0.044888600000     1.697648122925    -3.462196355135     0.096622064063
H     -0.702734400000     0.206675400000     0.731449600000    -0.405257310740     1.297635863028    -1.417295013148
H      0.251212500000     0.380188800000    -1.057331000000    -0.286472335761     0.496582901893     1.976921369294
H     -1.253074500000    -0.415609900000    -1.126039000000     1.215926198422     0.133337419966     2.868682856777
C     -0.411079200000    -0.141255100000    -0.290146400000    -2.221896096913     1.534485904047    -3.524828432851
5
Properties=species:S:1:pos:R:3:forces:R:3 energy=-1101.007263673308 pbc="F F F"
H      0.145867400000    -0.947408400000    -0.001633300000     1.295424714143    -2.951729495128     0.401194967440
H     -0.738309200000     0.267507200000     0.753848500000     0.347047530794     0.239626832642    -2.542101308685
H      0.317397700000     0.406130600000    -1.028955100000    -1.221685469936     0.047719678260     2.031017383873
H     -1.222324800000    -0.405103600000    -1.017055300000    -0.154523311607    -0.225228653856     0.972134178346
C     -0.419201100000    -0.148981900000    -0.299833000000    -0.266212041327     2.889405949814    -0.862193798906
5
Properties=species:S:1:pos:R:3:forces:R:3 energy=-1100.981504286842 pbc="F F F"
H      0.193936800000    -0.993225600000    -0.043099000000    -0.167018873910    -0.949559890893     0.234998846603
H     -0.769294500000     0.331963900000     0.741717500000     0.870524173775    -0.593204965956    -2.745835538497
H      0.366781400000     0.432895100000    -0.972680200000    -1.883744583726    -0.261069834618     1.609253589597
H     -1.196159500000    -0.398483200000    -0.896258400000    -3.409643002569    -1.155505269590    -2.280517253396
C     -0.427325800000    -0.153435800000    -0.310379100000     4.589830864362     2.959237116923     3.182614576364
5
Properties=species:S:1:pos:R:3:forces:R:3 energy=-1100.804854771618 pbc="F F F"
H      0.240030400000    -1.052842900000    -0.081065000000    -1.385567597753     0.720268893736     0.207488040710
H     -0.788362400000     0.388487700000     0.692007900000     1.152625633833    -1.101254988810    -2.186260604419
H      0.390243100000     0.456212500000    -0.894293000000    -2.137512484817    -0.380728984738     0.815965360592
H     -1.216368500000    -0.407690500000    -0.805456300000    -5.249781673401    -1.691580319008    -3.866270958332
C     -0.430214000000    -0.154446300000    -0.317400200000     7.619979011803     2.453295398820     5.029386693852
5
Properties=species:S:1:pos:R:3:forces:R:3 energy=-1101.035686782352 pbc="F F F"
H      0.267519300000    -1.103297400000    -0.115887700000    -1.941800097471     1.618406717539     0.377232284176
H     -0.791666300000     0.430060000000     0.612492800000     1.101254988810    -1.200191045892    -0.924928720756
H      0.384566600000     0.474608100000    -0.804871400000    -1.712149145845    -0.148044131153    -0.313726031319
H     -1.303120000000    -0.438378800000    -0.764557500000    -1.862970068621    -0.573973112864    -2.216291091600
C     -0.424828400000    -0.152753500000    -0.318917100000     4.415767167261     0.304161526840     3.077867825701
5
Properties=species:S:1:pos:R:3:forces:R:3 energy=-1100.898891607327 pbc="F F F"
H      0.268367100000    -1.131703800000    -0.145367700000    -2.011888374915     1.970493610907     0.604363554514
H     -0.780146800000     0.455423300000     0.520765900000     0.546667995239    -0.787066158887     0.959895726378
H      0.355810100000     0.491462900000    -0.720105300000    -0.547439326245     0.523373798847    -1.651522528745
H     -1.416105100000    -0.477105900000    -0.755251100000     1.765473829417     0.658202458758    -0.768142838198
C     -0.414308900000    -0.150746500000    -0.316812900000     0.246825922034    -2.364849443424     0.855097553648
5
Properties=species:S:1:pos:R:3:forces:R:3 energy=-1100.381520436390 pbc="F F F"
H      0.241487000000    -1.133050600000    -0.166404500000    -1.684586917884     1.841732754913     0.815708250256
H     -0.761440400000     0.470269100000     0.442685800000    -0.372347187802     0.013318315376     2.967207537322
H      0.319560100000     0.515768500000    -0.658200800000     0.724331237037     1.256652475557    -2.746812557772
H     -1.506904000000    -0.507413000000    -0.757799000000     3.337035043837     1.244979666328    -0.236232976214
C     -0.403298600000    -0.151461600000    -0.313648500000    -2.004894973791    -4.356888900442    -0.800230208062
5
Properties=species:S:1:pos:R:3:forces:R:3 energy=-1100.109531204295 pbc="F F F"
H      0.191612800000    -1.109445200000    -0.176041500000    -0.838231115642     0.976299365780     1.010083663858
H     -0.747484800000     0.484740400000     0.404801500000    -0.901017459559     0.331672332734     3.832126705784
H      0.292197300000     0.556603500000    -0.633770000000     0.980104598745     1.108454078202    -3.017601163071
H     -1.552263100000    -0.520730800000    -0.764027700000     3.756999065765     1.436989664843    -0.049365184407
C     -0.394521100000    -0.157056000000    -0.311361300000    -2.998472154113    -3.853723973962    -1.775244022165
5
Properties=species:S:1:pos:R:3:forces:R:3 energy=-1100.268676723344 pbc="F F F"
H      0.130765000000    -1.073435100000    -0.171488300000     0.630074588060    -0.927756934446     1.243231316047
H     -0.745050200000     0.502471800000     0.418423300000    -0.553455708095    -0.441458445972     2.939850997630
H      0.277285400000     0.611603400000    -0.650559800000     0.196792250755    -0.136782698461    -2.420333853815
H     -1.545566800000    -0.514155400000    -0.771037900000     3.661611131312     1.421614466783     0.046742658985
C     -0.389272600000    -0.166826700000    -0.311064300000    -3.937850475722     0.083458014888    -1.810725248457
5
Properties=species:S:1:pos:R:3:forces:R:3 energy=-1100.547307166313 pbc="F F F"
H      0.078759900000    -1.050647000000    -0.149506800000     2.048706574952    -2.896759305408     1.463009230791
H     -0.749985900000     0.513770600000     0.472366800000     0.127886680854    -1.453136193910     1.290950994307
H      0.265133000000     0.664537200000    -0.700775000000    -0.625909400625    -1.539473844555    -1.411998540238
H     -1.488176600000    -0.487879500000    -0.777517000000     3.030559523977     1.217057483897     0.022471443319
C     -0.388638500000    -0.176427800000    -0.312855500000    -4.581706177762     4.672260437908    -1.364690238514
5
Properties=species:S:1:pos:R:3:forces:R:3 energy=-1100.916270975353 pbc="F F F"
H      0.053681500000    -1.065400700000    -0.107622200000     2.060070851779    -2.460803020615     1.188209704260
H     -0.753434400000     0.505408300000     0.544653300000     0.574538755602    -1.916500440462    -0.171852548216
H      0.244805500000     0.696591200000    -0.770757200000    -0.964472290349    -2.387629419145    -0.385819769380
H     -1.389672000000    -0.444947800000    -0.784165600000     1.227547585584     0.668743982512    -0.442795419716
C     -0.393157900000    -0.180870000000    -0.316184600000    -2.898250545354     6.095828943241    -0.187947655216
5
Properties=species:S:1:pos:R:3:forces:R:3 energy=-1101.052229400258 pbc="F F F"
H      0.056092900000    -1.112247100000    -0.049954700000     0.945651813794    -0.097084862667     0.230010906096
H     -0.749229800000     0.470861900000     0.615011100000     0.688284368006    -1.819055623326    -1.228318916590
H      0.211553600000     0.696010200000    -0.846334400000    -0.800127363928    -2.548220534669     0.476733983996
H     -1.276349700000    -0.393323900000    -0.798242700000    -2.473401427052    -0.419038424720    -1.916860394932
C     -0.400788200000    -0.178407200000    -0.319583600000     1.638615589905     4.882885224711     2.439051486236
5
Properties=species:S:1:pos:R:3:forces:R:3 energy=-1100.829751557147 pbc="F F F"
H      0.071970700000    -1.161248400000     0.010857900000    -0.040880543337     1.723564844739    -0.814268432378
H     -0.735670800000     0.411284600000     0.668648200000     0.554278461168    -1.329620388759    -1.859061991522
H      0.167616700000     0.660492000000    -0.915554000000    -0.189284628960    -2.060122273846     1.060168757204
H     -1.197250800000    -0.347509800000    -0.839469300000    -5.531780289326    -1.398988757264    -3.401209783566
C     -0.406564100000    -0.170239200000    -0.320096100000     5.207358468052     3.065012308928     5.014525716462
5
Properties=species:S:1:pos:R:3:forces:R:3 energy=-1100.942187915745 pbc="F F F"
H      0.087883100000    -1.187454800000     0.060646000000    -0.526253434604     2.419871055211    -1.551506608254
H     -0.714541500000     0.333475700000     0.696907100000     0.248008629577    -0.504193367822    -1.917991680408
H      0.121428000000     0.596791000000    -0.970429700000     0.752716218070    -1.008129625309     1.210886835847
H     -1.189037100000    -0.319824500000    -0.924083300000    -3.633431838546    -1.275884328649    -1.674868147204
C     -0.406836500000    -0.158565400000    -0.315111900000     3.158909003435     0.367462091429     3.933633866220
5
Properties=species:S:1:pos:R:3:forces:R:3 energy=-1100.928313374238 pbc="F F F"
H      0.096834100000    -1.180678800000     0.089086600000    -0.652083232774     2.318415316841    -1.958717957543
H     -0.690143900000     0.248948900000     0.699227800000    -0.234176093530     0.607911677144    -1.186615620180
H      0.085798800000     0.519269400000    -1.008948500000     1.705669965391     0.287757887438     0.865999031871
H     -1.230612200000    -0.309690100000    -1.030766300000    -0.552375844686    -0.822958761716     1.300566920852
C     -0.403503900000    -0.146463700000    -0.305676500000    -0.266571995797    -2.391486074177     0.979024735336
5
Properties=species:S:1:pos:R:3:forces:R:3 energy=-1100.556378353959 pbc="F F F"
H      0.096948200000    -1.142153700000     0.090472200000    -0.513397917831     1.582668380911    -2.035902480246
H     -0.669202400000     0.173028100000     0.685877700000    -0.853812001970     1.785528435583     0.314548784392
H      0.073574800000     0.445424100000    -1.035523000000     2.249664013141     1.285705943463     0.384945594239
H     -1.281971900000    -0.311317000000    -1.121030900000     0.929916661264    -0.548313501386     2.898096279152
C     -0.400282400000    -0.137072600000    -0.295034300000    -1.812267910470    -4.105743524772    -1.561482489270
5
Properties=species:S:1:pos:R:3:forces:R:3 energy=-1100.228502105132 pbc="F F F"
H      0.090251600000    -1.082288300000     0.063834600000    -0.044582932167     0.134365861307    -1.692043117612
H     -0.660047100000     0.121660300000     0.676819400000    -1.312702528686     2.573931568214     1.672862686588
H      0.092040800000     0.388785400000    -1.056092900000     2.110464477528     1.626942780676     0.397903955146
H     -1.321333100000    -0.320719200000    -1.171934000000     1.497667704010    -0.361291443378     3.428566323258
C     -0.399083900000    -0.132328100000    -0.286209000000    -2.250692454483    -3.974051610954    -3.807238425312
5
Properties=species:S:1:pos:R:3:forces:R:3 energy=-1100.191925648493 pbc="F F F"
H      0.083405800000    -1.021378400000     0.014054000000     0.805269570637    -1.978104076837    -0.896749427991
H     -0.668555000000     0.105411400000     0.689271400000    -1.176948271567     2.588792545603     1.481778285279
H      0.139365900000     0.354369700000    -1.070417400000     1.384230624009     1.490262926349     0.958301642298
H     -1.340034500000    -0.335179800000    -1.175358500000     1.766450848692    -0.175657781181     3.470680996205
C     -0.400548200000    -0.132062300000    -0.281758700000    -2.778797083502    -1.924882237398    -5.014474294395
5
Properties=species:S:1:pos:R:3:forces:R:3 energy=-1100.440308186871 pbc="F F F"
H      0.087714700000    -0.987656900000    -0.048217600000     1.498130502614    -3.573010909715    -0.059958130228
H     -0.692853600000     0.124590900000     0.720828700000    -0.470974712482     1.909044240734    -0.059701019892
H      0.205808300000     0.340692000000    -1.071318500000     0.420581086733     1.224410839491     1.538291137012
H     -1.334233300000    -0.352064100000    -1.130589400000     1.810519560189     0.036303979366     3.137620267660
C     -0.405286300000    -0.134026500000    -0.283039400000    -3.258102170853     0.403303272191    -4.556355098686
5
Properties=species:S:1:pos:R:3:forces:R:3 energy=-1100.905968472490 pbc="F F F"
H      0.111515500000    -1.001078200000    -0.111927000000     1.006844073632    -2.857884222688     0.322107828255
H     -0.723645100000     0.170187400000     0.751691100000     0.336608851174     0.948737137819    -1.536131410194
H      0.278178400000     0.344160500000    -1.051084500000    -0.519979942419     0.950588332235     1.783934351503
H     -1.303758200000    -0.368491500000    -1.042652700000     1.234335298440     0.188873252423     2.116995080048
C     -0.413686100000    -0.135728300000    -0.289541400000    -2.057859702894     0.769376967808    -2.687162959947
5
Properties=species:S:1:pos:R:3:forces:R:3 energy=-1101.159747572945 pbc="F F F"
H      0.148467200000    -1.052798700000    -0.171307000000    -0.266777684065    -0.700779930309     0.528156051086
H     -0.749996700000     0.229164600000     0.761973500000     0.921483442261     0.059495331624    -2.241847858944
H      0.343404500000     0.360902600000    -1.006310400000    -1.340213334579     0.645861162656     1.649105691592
H     -1.257794200000    -0.382736300000    -0.926586600000    -0.889190384129    -0.069882589176    -0.180491455488
C     -0.424264200000    -0.136635500000    -0.299102000000     1.574646538445     0.065306025205     0.245180415887
5
Properties=species:S:1:pos:R:3:forces:R:3 energy=-1100.828297652792 pbc="F F F"
H      0.182147700000    -1.114999700000    -0.223203400000    -1.202453616844     0.987355110204     0.792414053864
H     -0.763781000000     0.289249800000     0.741767900000     1.217263172166    -0.595827491377    -2.164200537637
H      0.390114300000     0.386680600000    -0.938856300000    -1.933058346065     0.340979726877     1.155196737188
H     -1.226435600000    -0.398855800000    -0.814142200000    -4.530027000336    -0.984321208246    -3.189916509891
C     -0.432841500000    -0.137357100000    -0.308331000000     6.447607304207     0.251659596341     3.406660522677
5
Properties=species:S:1:pos:R:3:forces:R:3 energy=-1100.665209476021 pbc="F F F"
H      0.199673100000    -1.164369400000    -0.264015800000    -1.564670657429     1.839367339826     1.047827461103
H     -0.760846000000     0.341348500000     0.692049100000     1.224359417424    -0.943234976641    -1.396931874580
H      0.410297300000     0.417400600000    -0.855620400000    -2.058065391162     0.180748565823     0.323444801999
H     -1.254470900000    -0.427709900000    -0.743060900000    -4.876663154593    -1.020265233142    -3.617799530151
C     -0.434250500000    -0.137831100000    -0.313863600000     7.275091207827    -0.056769962068     3.643510563696
5
Properties=species:S:1:pos:R:3:forces:R:3 energy=-1100.862554066658 pbc="F F F"
H      0.195717600000    -1.188597800000    -0.290240800000    -1.547392842887     2.143940243203     1.229758734469
H     -0.741185300000     0.380654900000     0.623473600000     0.871706881318    -0.933104829424    -0.024476903935
H      0.402431800000     0.450989400000    -0.768150100000    -1.535720033657     0.303235929633    -0.756778561371
H     -1.345311800000    -0.468901500000    -0.719979500000    -0.948582871618     0.430916922218    -1.865592594043
C     -0.427630000000    -0.138547000000    -0.315362000000     3.159988866844    -1.944474044959     1.416986480745
5
Properties=species:S:1:pos:R:3:forces:R:3 energy=-1100.701946479837 pbc="F F F"
H      0.170402200000    -1.183295300000    -0.299374900000    -1.249556230299     2.002580980772     1.299744167779
H     -0.709748800000     0.407302800000     0.554985900000     0.167738782849    -0.586314408966     1.689009215654
H      0.373600300000     0.489111700000    -0.691302500000    -0.574744443870     0.653008829982    -1.847697714695
H     -1.450997400000    -0.504646700000    -0.723911800000     2.014202367934     1.513659966875    -0.687101660463
C     -0.417196900000    -0.141517900000    -0.315142300000    -0.357897586950    -3.582935368663    -0.454262540677
5
Properties=species:S:1:pos:R:3:forces:R:3 energy=-1100.393311402069 pbc="F F F"
H      0.128053400000    -1.150761600000    -0.290455500000    -0.543428405012     1.143626772092     1.244979666328
H     -0.675952000000     0.425746000000     0.509648200000    -0.517871637668    -0.256133316178     2.949672612444
H      0.336450500000     0.536165900000    -0.639874100000     0.157454369431     0.807737829857    -2.550534527688
H     -1.530581900000    -0.520039900000    -0.738216000000     3.203183403200     1.884053116128    -0.157197259096
C     -0.407025200000    -0.148546200000    -0.315377300000    -2.299389152018    -3.579335823967    -1.487126180257
5
Properties=species:S:1:pos:R:3:forces:R:3 energy=-1100.281807577671 pbc="F F F"
H      0.078800200000    -1.103579100000    -0.264180500000     0.742431804652    -0.844504607827     1.129691391911
H     -0.648818100000     0.439869900000     0.503973000000    -0.729319177544    -0.509335574531     2.861432345317
H      0.300583300000     0.593667900000    -0.623377900000     0.148146975288     0.258035932660    -2.596711543935
H     -1.566246200000    -0.509489300000    -0.754968700000     3.545397259687     1.861067452139     0.142387703774
C     -0.399510600000    -0.159498500000    -0.317261700000    -3.706708284150    -0.765571734843    -1.537211273603
5
Properties=species:S:1:pos:R:3:forces:R:3 energy=-1100.376078159186 pbc="F F F"
H      0.040134400000    -1.068769700000    -0.221983900000     2.116172326975    -3.138134488331     1.077857948284
H     -0.631403500000     0.446352200000     0.537038500000    -0.528875960026    -1.174120057877     1.659647215345
H      0.266289300000     0.654116300000    -0.642588100000    -0.283798388272    -0.839156712850    -2.083416470238
H     -1.552739100000    -0.473141700000    -0.769826900000     3.443273034446     1.600049039587     0.344836381909
C     -0.396330700000    -0.171184100000    -0.320897600000    -4.746925279324     3.551310797403    -0.999130763568
5
Properties=species:S:1:pos:R:3:forces:R:3 energy=-1100.761432746597 pbc="F F F"
H      0.029475700000    -1.074798000000    -0.164945300000     2.179524313630    -2.944890360205     0.788454554698
H     -0.621336300000     0.436711300000     0.593154100000    -0.264823645516    -1.596089540421     0.260195659478
H      0.228226700000     0.702956500000    -0.690658100000    -0.561734660896    -1.831242653226    -1.291156682575
H     -1.491749300000    -0.414671600000    -0.780077900000     2.671376385350     1.086496855555     0.340465506206
C     -0.398557000000    -0.178968900000    -0.325679500000    -4.024342392568     5.285674276231    -0.098061881942
5
Properties=species:S:1:pos:R:3:forces:R:3 energy=-1101.161606654838 pbc="F F F"
H      0.047763200000    -1.119177100000    -0.097668400000     0.962055453196    -0.426751734784    -0.123772915487
H     -0.615106600000     0.405272500000     0.653279700000    -0.104746750663    -1.554951886749    -0.842601991345
H      0.182753500000     0.726764400000    -0.756760000000    -0.454982449617    -2.311061961247    -0.451794281457
H     -1.395051000000    -0.341405700000    -0.786244200000     0.422072326679     0.221423420892    -0.269863008091
C     -0.405268800000    -0.180842400000    -0.330486800000    -0.824604267863     4.071239317755     1.687826508111
5
Properties=species:S:1:pos:R:3:forces:R:3 energy=-1100.980374197980 pbc="F F F"
H      0.079651800000    -1.170303300000    -0.032250500000    -0.212475981218     1.593826969469    -1.163732800325
H     -0.610479000000     0.352467000000     0.702066000000    -0.059649597825    -1.156945087469    -1.547135732551
H      0.131365000000     0.718905300000    -0.829318100000     0.042886003953    -2.192276986268     0.275468013404
H     -1.294795500000    -0.265279600000    -0.797459700000    -3.609571999416    -0.807017920918    -1.865901126445
C     -0.412790600000    -0.177935600000    -0.333219200000     3.838297353835     2.562155914850     4.301558756253
5
Properties=species:S:1:pos:R:3:forces:R:3 energy=-1100.627364968794 pbc="F F F"
H      0.109205900000    -1.200583600000     0.017254000000    -0.858234299740     2.384235562717    -1.893411932339
H     -0.606786100000     0.283761000000     0.729726300000    -0.101815692839    -0.494268908874    -1.778535034458
H      0.080926000000     0.680982800000    -0.898308900000     0.832266155859    -1.531503424156     0.753693237345
H     -1.242782100000    -0.199811500000    -0.834043300000    -5.604336825990    -1.350189215595    -2.685980252404
C     -0.416066200000    -0.172024700000    -0.331009800000     5.731606442039     0.991468875572     5.604131137722
5
Properties=species:S:1:pos:R:3:forces:R:3 energy=-1100.712369257026 pbc="F F F"
H      0.127251600000    -1.198428700000     0.040662400000    -1.062225639888     2.333636248700    -2.262879484384
H     -0.604610900000     0.208394500000     0.733222400000    -0.227851179278     0.390139223015    -1.370963730699
H      0.042161100000     0.621968000000    -0.957125900000     1.629513884030    -0.574127379065     0.913924398399
H     -1.263084800000    -0.152897800000    -0.904466200000    -2.883492412099    -1.570738461346    -0.661030672448
C     -0.413155100000    -0.164949100000    -0.322591800000     2.544158191369    -0.579269585774     3.380743800864
5
Properties=species:S:1:pos:R:3:forces:R:3 energy=-1100.692001806701 pbc="F F F"
H      0.130785900000    -1.164301300000     0.032766700000    -0.940303918817     1.652345281818    -2.293218503967
H     -0.605768800000     0.138616200000     0.718381800000    -0.471848887622     1.372454970645    -0.242969267003
H      0.025772900000     0.554785700000    -1.003378900000     2.058939566303     0.283592700004     0.880602898924
H     -1.323928600000    -0.127863000000    -0.984098900000     0.022214332983    -1.674816725137     1.577011953531
C     -0.407219500000    -0.158505100000    -0.310286500000    -0.668281183908    -1.633679071465     0.078984295051
5
Properties=species:S:1:pos:R:3:forces:R:3 energy=-1100.490485710586 pbc="F F F"
H      0.121590100000    -1.107892500000    -0.006775600000    -0.435236375854     0.225794296594    -1.920614205829
H     -0.613592400000     0.087829100000     0.700519100000    -0.751276400192     2.150933644328     1.163887066526
H      0.037606300000     0.491173000000    -1.037220500000     1.974093155604     0.809743290474     0.907856594482
H     -1.386285100000    -0.126004600000    -1.043153700000     1.443931643901    -1.552277939260     2.600156822430
C     -0.401897500000    -0.153880700000    -0.297839800000    -2.231049224855    -1.634296136270    -2.750772056938
5
Properties=species:S:1:pos:R:3:forces:R:3 energy=-1100.347321166435 pbc="F F F"
H      0.106849000000    -1.049292600000    -0.072730000000     0.509027042129    -1.972910448060    -1.155813801993
H     -0.631611800000     0.066477100000     0.697901100000    -0.752459107735     2.351428283913     1.689369170124
H      0.076612800000     0.438570200000    -1.058141300000     1.485892050647     1.055437927032     1.101614943279
H     -1.429286800000    -0.145704100000    -1.066658800000     2.087581657672    -1.270485011605     2.860609592243
C     -0.399160600000    -0.151026700000    -0.288525500000    -3.329835954444    -0.163367907146    -4.495831325721
5
Properties=species:S:1:pos:R:3:forces:R:3 energy=-1100.436016134954 pbc="F F F"
H      0.099057300000    -1.017850300000    -0.154881300000     1.245699575267    -3.674569492219    -0.396104182798
H     -0.659555000000     0.077245900000     0.717166100000    -0.254693498299     1.876596916400     0.779301426756
H      0.136196800000     0.400601500000    -1.063583700000     0.794573780682     1.167383767088     1.340521866982
H     -1.443435100000    -0.183061200000    -1.050526500000     2.377190739526    -0.870369907573     2.735859657482
C     -0.400325300000    -0.148335400000    -0.284317600000    -4.162616330974     1.501112982505    -4.459218813952
5
Properties=species:S:1:pos:R:3:forces:R:3 energy=-1100.824961808979 pbc="F F F"
H      0.107067500000    -1.034695700000    -0.242901800000     0.692449555440    -2.862203676323     0.136525588125
H     -0.690792100000     0.113865500000     0.746783700000     0.475088477849     1.032195152707    -0.626834997833
H      0.206844500000     0.378875300000    -1.050368600000     0.043143114289     1.182347588611     1.485480674110
H     -1.424759100000    -0.232473900000    -0.996508900000     2.241693592742    -0.361445709579     2.225907018146
C     -0.406226100000    -0.144111300000    -0.285234900000    -3.452426162388     1.009003800449    -3.220975438414
5
Properties=species:S:1:pos:R:3:forces:R:3 energy=-1101.155595659665 pbc="F F F"
H      0.124034200000    -1.089874400000    -0.328832200000    -0.484550138194    -0.578343988567     0.778118719213
H     -0.715573800000     0.164955000000     0.768213700000     1.049524389317     0.188718986222    -1.566470429777
H      0.278093100000     0.373530500000    -1.016534600000    -0.709830214117     1.049678655518     1.469848365714
H     -1.375760800000    -0.286960400000    -0.912108600000     1.157664996408     0.120070526656     1.026538725327
C     -0.416018500000    -0.138832800000    -0.289923400000    -1.012706189280    -0.780175601897    -1.707932536343
5
Properties=species:S:1:pos:R:3:forces:R:3 energy=-1101.015791177460 pbc="F F F"
H      0.134925100000    -1.153986900000    -0.403865200000    -1.123109367323     1.104237468701     1.421151668180
H     -0.726013200000     0.218908600000     0.768522700000     1.323655428976    -0.469534894603    -1.813399195946
H      0.339476600000     0.382727900000    -0.962391200000    -1.392098200273     0.787169003021     1.217057483897
H     -1.312598000000    -0.340279700000    -0.814543200000    -1.616761211392     0.155808863284    -1.152214257296
C     -0.426866000000    -0.134363800000    -0.296564500000     2.808107661744    -1.577577596269     0.327661411501
5
Properties=species:S:1:pos:R:3:forces:R:3 energy=-1100.540162816913 pbc="F F F"
H      0.130790400000    -1.203710500000    -0.459252100000    -1.164812663734     1.882253343780     1.855873823363
H     -0.718254000000     0.266569800000     0.744151200000     1.305246328958    -0.883842489151    -1.439355079930
H      0.381646700000     0.402943900000    -0.891562900000    -1.826614667188     0.523219532646     0.659539432503
H     -1.272852300000    -0.392190900000    -0.733106700000    -4.766877041355    -0.348538770739    -3.195264404868
C     -0.434399900000    -0.131618400000    -0.302829300000     6.452903777117    -1.172988772401     2.118949118597
5
Properties=species:S:1:pos:R:3:forces:R:3 energy=-1100.464928776832 pbc="F F F"
H      0.110682600000    -1.227679700000    -0.488899600000    -0.905594023530     2.124759812179     2.073646277491
H     -0.692533800000     0.302171700000     0.700280300000     1.009877975590    -1.023093446832    -0.499565381784
H      0.398798700000     0.430675300000    -0.811824700000    -1.787019675528     0.417804295110    -0.174629339839
H     -1.294755600000    -0.447752900000    -0.693397900000    -3.964692794743     0.098781790881    -2.909254867711
C     -0.434822200000    -0.130347700000    -0.306862100000     5.647274252011    -1.618098185136     1.509957578045
5
Properties=species:S:1:pos:R:3:forces:R:3 energy=-1100.611601684984 pbc="F F F"
H      0.078029700000    -1.222270000000    -0.489746100000    -0.516277553588     2.021041502857     2.081616697890
H     -0.652992100000     0.323777100000     0.649936100000     0.447680516090    -0.882711203675     0.871552615117
H      0.391520000000     0.464526300000    -0.734683700000    -1.253310041196     0.533298257795    -1.133702313144
H     -1.369147300000    -0.500721300000    -0.693099900000    -0.618967421568     1.500804450103    -1.449382383012
C     -0.428891600000    -0.131100500000    -0.309241800000     1.941028766464    -3.172330162946    -0.370033194783
5
Properties=species:S:1:pos:R:3:forces:R:3 energy=-1100.552437056807 pbc="F F F"
H      0.038339900000    -1.189169900000    -0.461748500000     0.049313762340     1.366078634326     1.824403518303
H     -0.607297000000     0.333181400000     0.611722100000    -0.203837073947    -0.618144668495     2.148825339577
H      0.366875300000     0.505928600000    -0.673243700000    -0.570476412302     0.705973559085    -1.939331838250
H     -1.453778200000    -0.533402100000    -0.713734900000     1.608482258590     2.373385506561    -0.440275738429
C     -0.420568400000    -0.135492200000    -0.311985900000    -0.883585378816    -3.827190187343    -1.593775547402
5
Properties=species:S:1:pos:R:3:forces:R:3 energy=-1100.466925548339 pbc="F F F"
H     -0.000224800000    -1.138202300000    -0.408549200000     0.978407670531    -0.353783821583     1.283803326981
H     -0.564187100000     0.333636700000     0.602433300000    -0.638456384995    -0.588217025448     2.454272418094
H      0.333806900000     0.556824800000    -0.638426500000    -0.240398163648     0.547336482111    -2.294761165980
H     -1.517334800000    -0.533671700000    -0.741040100000     2.593729064044     2.543489704496     0.132514666892
C     -0.413185000000    -0.144152400000    -0.316479800000    -2.693590718334    -2.149185294047    -1.576086356323
5
Properties=species:S:1:pos:R:3:forces:R:3 energy=-1100.472270953009 pbc="F F F"
H     -0.024771300000    -1.093248400000    -0.337401400000     2.115658106304    -2.818494919296     0.724228392902
H     -0.529672300000     0.325478200000     0.626060100000    -0.787066158887    -0.853297781299     1.564156436758
H      0.296804600000     0.614723600000    -0.635111400000    -0.370855947857    -0.149998169703    -2.115812372505
H     -1.545222100000    -0.498814000000    -0.766698400000     2.983405488456     2.278151838310     0.512883697160
C     -0.408922800000    -0.155122700000    -0.322738400000    -3.941398598351     1.543330499587    -0.685867530853
5
Properties=species:S:1:pos:R:3:forces:R:3 energy=-1100.711790742959 pbc="F F F"
H     -0.020754400000    -1.085404300000    -0.255843700000     2.358833061575    -3.332355635732     0.328638430775
H     -0.506032300000     0.305497600000     0.671092700000    -0.802235668679    -1.024430420577     0.229033886821
H      0.254521800000     0.670263100000    -0.660988300000    -0.583177662873    -1.064899587377    -1.560505469995
H     -1.531824900000    -0.432397300000    -0.785334700000     2.919333592861     1.707418315672     0.743768778397
C     -0.409170200000    -0.164436000000    -0.329807300000    -3.893010433219     3.714061639744     0.259115796069
5
Properties=species:S:1:pos:R:3:forces:R:3 energy=-1101.117373730514 pbc="F F F"
H      0.014561700000    -1.120627800000    -0.170166400000     1.224462261559    -1.018722571130    -0.423666410758
H     -0.493581700000     0.271543900000     0.719633500000    -0.773850687645    -0.889498916531    -0.874740783276
H      0.204384600000     0.711188300000    -0.708541800000    -0.538646152773    -1.737500224920    -0.848875483530
H     -1.478484400000    -0.342420600000    -0.793907600000     2.023612606212     0.836482765361     0.659745120771
C     -0.413801900000    -0.169710300000    -0.336541600000    -1.935835137688     2.808878992750     1.487537556793
5
Properties=species:S:1:pos:R:3:forces:R:3 energy=-1101.159200079858 pbc="F F F"
H      0.066832000000    -1.170395100000    -0.090720900000    -0.130714894544     1.222713911277    -1.419660428234
H     -0.491925600000     0.225403200000     0.756432800000    -0.709007461044    -0.520082786553    -1.544770317465
H      0.147127900000     0.728324500000    -0.768003300000    -0.133491686167    -1.949256297199    -0.152672117192
H     -1.398551600000    -0.240987200000    -0.793999700000    -0.336917383577    -0.230782237102    -0.067774284425
C     -0.420586400000    -0.171704400000    -0.341478700000     1.309874314996     1.476893188906     3.184774303182
5
Properties=species:S:1:pos:R:3:forces:R:3 energy=-1100.729447122895 pbc="F F F"
H      0.117855200000    -1.204575800000    -0.030842500000    -1.016048623641     2.207035119523    -2.170833984292
H     -0.500156100000     0.172141700000     0.772143400000    -0.607603144741    -0.006736290789    -1.739608529671
H      0.088375600000     0.718739500000    -0.829776100000     0.587651382710    -1.669108875690     0.394664364919
H     -1.324565900000    -0.142446200000    -0.795759100000    -3.549665291256    -1.019648168337    -1.308125964715
C     -0.425811100000    -0.171922900000    -0.342667200000     4.585254300391     0.488303949091     4.823955535825
5
Properties=species:S:1:pos:R:3:forces:R:3 energy=-1100.403330906517 pbc="F F F"
H      0.155190600000    -1.208853000000    -0.000947500000    -1.434881360093     2.309570721302    -2.566166836083
H     -0.516867600000     0.118907900000     0.764151300000    -0.485475735401     0.611254111505    -1.362993310300
H      0.037995300000     0.686216400000    -0.886300500000     1.422745752259    -1.021705051021     0.707259110762
H     -1.297205600000    -0.057700000000    -0.814513900000    -4.279755799807    -1.454781700057    -1.466608775488
C     -0.425961600000    -0.171570300000    -0.338360300000     4.777110032706    -0.444132393460     4.688509811109
5
Properties=species:S:1:pos:R:3:forces:R:3 energy=-1100.436131511231 pbc="F F F"
H      0.172852600000    -1.181430400000    -0.006600500000    -1.482498194219     1.833968022782    -2.621034181669
H     -0.540425900000     0.074297000000     0.737858800000    -0.405308732807     1.278506854071    -0.323856178536
H      0.007258700000     0.639472600000    -0.933160200000     2.020578704253    -0.297013859515     0.819050684617
H     -1.326042500000     0.006372300000    -0.851865000000    -2.021658567662    -2.063310442006    -0.102638445913
C     -0.420815000000    -0.171673400000    -0.328780500000     1.888989634569    -0.752407685668     2.228683809769
5
Properties=species:S:1:pos:R:3:forces:R:3 energy=-1100.489888148549 pbc="F F F"
H      0.170228500000    -1.129079400000    -0.048507800000    -1.108454078202     0.691009737562    -2.285093817367
H     -0.569774200000     0.047469300000     0.707509400000    -0.411222270523     1.833042425574     1.083720063932
H      0.004231400000     0.588349400000    -0.968617000000     2.127279493466     0.251248219804     0.870421329641
H     -1.383448900000     0.041799500000    -0.890944200000     0.198592023103    -2.483840106671     1.112927798039
C     -0.413406000000    -0.172590400000    -0.316627500000    -0.805886635442    -0.291717386604    -0.781821108044
5
Properties=species:S:1:pos:R:3:forces:R:3 energy=-1100.502939817742 pbc="F F F"
H      0.152802300000    -1.068172300000    -0.121911400000    -0.135702835052    -1.378368508360    -1.537108429469
H     -0.604798900000     0.045836500000     0.691591600000    -0.335323299497     1.978618297508     1.853148453807
H      0.030454300000     0.540490200000    -0.991830800000     1.774421269091     0.585645922093     0.961746920793
H     -1.439210600000     0.042974800000    -0.915293100000     1.484195122433    -2.463734078439     1.623806034583
C     -0.406871600000    -0.173739600000    -0.305306600000    -2.787693101109     1.277632678930    -2.901747245916
5
Properties=species:S:1:pos:R:3:forces:R:3 energy=-1100.570321740271 pbc="F F F"
H      0.133764900000    -1.026905400000    -0.216770000000     0.992548738980    -3.591471431800    -0.736312578669
H     -0.644073900000     0.071165600000     0.699902000000     0.098936057082     1.504815371336     1.231712773018
H      0.081211500000     0.500678700000    -1.001541400000     1.147637693325     0.783466614191     1.081766025382
H     -1.474869300000     0.010029700000    -0.917411600000     2.163789161100    -2.108407594844     1.684278385482
C     -0.403593700000    -0.173314200000    -0.297219700000    -4.402757384287     3.411391352850    -3.261547449348
5
Properties=species:S:1:pos:R:3:forces:R:3 energy=-1100.853769414908 pbc="F F F"
H      0.126923600000    -1.032968400000    -0.322255700000     0.771382428424    -3.423218428280    -0.136062789521
H     -0.681675500000     0.117088100000     0.724665000000     0.767371507191     0.627657750906    -0.071065296719
H      0.147916200000     0.471720800000    -0.996126500000     0.408908277504     0.874072296404     1.182707543081
H     -1.480736900000    -0.052142000000    -0.896258900000     2.383001433107    -1.493245406240     1.459049731625
C     -0.405321900000    -0.169100300000    -0.292846600000    -4.330560802092     3.414888053412    -2.434526344332
5
Properties=species:S:1:pos:R:3:forces:R:3 energy=-1101.152567848742 pbc="F F F"
H      0.129553400000    -1.084226900000    -0.429241100000    -0.514014982636    -1.042376721991     0.746442725885
H     -0.708721000000     0.171839300000     0.748862800000     1.286785806872    -0.230370860565    -1.049730077585
H      0.220316600000     0.454822300000    -0.974216900000    -0.357434788346     0.812108705560     1.221582625801
H     -1.453992000000    -0.134994500000    -0.855066400000     1.933109768132    -0.686793128060     0.887133501445
C     -0.411949200000    -0.161108100000    -0.291368300000    -2.348600070224     1.147329160923    -1.805325931413
5
Properties=species:S:1:pos:R:3:forces:R:3 energy=-1101.095981227277 pbc="F F F"
H      0.125767300000    -1.150722300000    -0.525679000000    -1.232638370226     0.940046808481     1.709372354222
H     -0.718124900000     0.223642400000     0.759080500000     1.487074758190    -0.857565812868    -1.421151668180
H      0.287763800000     0.449128600000    -0.935379300000    -1.074824046325     0.611922598377     1.105985818982
H     -1.401430400000    -0.227481600000    -0.802052200000     0.418781314385     0.092662564897    -0.191187245442
C     -0.421271300000    -0.151720400000    -0.292016100000     0.401400655708    -0.787169003021    -1.202813571313
5
Properties=species:S:1:pos:R:3:forces:R:3 energy=-1100.721154725118 pbc="F F F"
H      0.105659900000    -1.205350500000    -0.598573700000    -1.160801742501     1.844458124468     2.354770718274
H     -0.707056400000     0.263735800000     0.750010600000     1.382430851660    -1.226210611840    -1.257012430027
H      0.340380800000     0.451980300000    -0.881351200000    -1.598609221709     0.392247527766     0.737855240681
H     -1.344135500000    -0.319152100000    -0.752154900000    -1.957689516202     0.482544677577    -1.590844489578
C     -0.430094000000    -0.143132500000    -0.294035100000     3.334721050818    -1.493451094509    -0.244717617284
5
Properties=species:S:1:pos:R:3:forces:R:3 energy=-1100.385647587309 pbc="F F F"
H      0.069741100000    -1.234909800000    -0.638877700000    -0.694506438124     2.080999633085     2.669628035069
H     -0.676922500000     0.286952400000     0.723899700000     1.022784914430    -1.338207873963    -0.604363554514
H      0.371047800000     0.460463700000    -0.817301500000    -1.748761657613     0.290894633531     0.105003860999
H     -1.312955600000    -0.404360500000    -0.723680700000    -3.226580443726     0.673834767154    -2.269255820703
C     -0.435153200000    -0.136248600000    -0.296402300000     4.647217891235    -1.707829692209     0.099296011552
5
Properties=species:S:1:pos:R:3:forces:R:3 energy=-1100.342193180739 pbc="F F F"
H      0.024220600000    -1.235700600000    -0.642090000000    -0.110814554580     1.977024213428     2.724186848252
H     -0.632698300000     0.291734400000     0.689862000000     0.465883927840    -1.190883651748     0.496582901893
H      0.377781300000     0.473268400000    -0.751989000000    -1.430099107853     0.397646844811    -0.702579702657
H     -1.323928700000    -0.479356300000    -0.725350700000    -2.101619881988     1.441052008144    -1.643397842145
C     -0.435038900000    -0.131453500000    -0.298793100000     3.176495350380    -2.624942258768    -0.874432250874
5
Properties=species:S:1:pos:R:3:forces:R:3 energy=-1100.397739783030 pbc="F F F"
H     -0.022818300000    -1.209186400000    -0.607485900000     0.510826814477     1.519213550121     2.485177080416
H     -0.582025100000     0.280037000000     0.662916400000    -0.149432526965    -0.884665242225     1.685358248891
H      0.364886900000     0.491853900000    -0.696503500000    -0.782541016983     0.675634539502    -1.493553938643
H     -1.363666800000    -0.533916000000    -0.749623300000    -0.329718294184     2.421465139291    -0.626012244760
C     -0.431274500000    -0.129769300000    -0.302231600000     0.751070711924    -3.731750830823    -2.050712035568
5
Properties=species:S:1:pos:R:3:forces:R:3 energy=-1100.481064312403 pbc="F F F"
H     -0.062558800000    -1.162289600000    -0.538563700000     1.258760780308     0.283695544138     1.837413301277
H     -0.533260300000     0.255827100000     0.658695300000    -0.614185169329    -0.674966052630     2.131856057437
H      0.340934100000     0.519806000000    -0.661582400000    -0.221937641563     0.861936688571    -1.982886329076
H     -1.408812000000    -0.555166200000    -0.783014000000     0.833860239939     2.921339053477     0.123670071353
C     -0.426579900000    -0.132330400000    -0.307967700000    -1.256703897624    -3.392262343892    -2.109744568588
5
Properties=species:S:1:pos:R:3:forces:R:3 energy=-1100.612661296356 pbc="F F F"
H     -0.084451300000    -1.112733900000    -0.444282800000     2.161269479813    -1.968333884089     0.903280030511
H     -0.492848700000     0.221954500000     0.682854400000    -0.873969452270    -0.622772654533     1.374306165060
H      0.313303000000     0.559267800000    -0.653808800000    -0.124184292024     0.584668902819    -1.951056069547
H     -1.442876300000    -0.536177800000    -0.814981000000     1.478744383321     2.846982744464     0.607603144741
C     -0.423304500000    -0.138649400000    -0.316056300000    -2.642528605713    -0.840390842460    -0.934133270766
5
Properties=species:S:1:pos:R:3:forces:R:3 energy=-1100.811951773207 pbc="F F F"
H     -0.076581300000    -1.089870800000    -0.337026500000     2.591209382756    -3.379561093321     0.197049361091
H     -0.464560900000     0.179512600000     0.725590400000    -1.028544185944    -0.452719878665     0.042423205350
H      0.283511800000     0.606342300000    -0.672803600000    -0.374044116016    -0.162802264408    -1.450667934690
H     -1.456592800000    -0.477850500000    -0.838636300000     1.789025136145     2.311679026053     0.911147606776
C     -0.423038700000    -0.145950200000    -0.325244700000    -2.977954749344     1.683249944140     0.300253449741
5
Properties=species:S:1:pos:R:3:forces:R:3 energy=-1101.118486404089 pbc="F F F"
H     -0.034078700000    -1.110449900000    -0.227009900000     1.710297951429    -1.787173941730    -0.517151728729
H     -0.450599000000     0.131013200000     0.769226600000    -1.112156467033    -0.054147436646    -1.059963068936
H      0.248562300000     0.651089200000    -0.711860900000    -0.567236822075    -0.960152836713    -0.728753534806
H     -1.445836200000    -0.387577200000    -0.849819100000     1.587450633150     1.410044501688     0.961181278055
C     -0.426100800000    -0.151581500000    -0.334103100000    -1.619126626478     1.391172603066     1.344378522014
5
Properties=species:S:1:pos:R:3:forces:R:3 energy=-1101.167536015853 pbc="F F F"
H      0.031695400000    -1.155237400000    -0.124689300000     0.236952885153     0.595930335512    -1.561173956867
H     -0.452091400000     0.081845400000     0.798595300000    -1.093130302209     0.426597468583    -1.675639478210
H      0.206026600000     0.682750000000    -0.761134400000    -0.461307363869    -1.459461108162    -0.012392718169
H     -1.413828400000    -0.277819600000    -0.848025600000     0.559934888548     0.294185645825     0.600969698086
C     -0.430967600000    -0.155661100000    -0.341348400000     0.757447048243     0.142387703774     2.647979344824
5
Properties=species:S:1:pos:R:3:forces:R:3 energy=-1100.840042087000 pbc="F F F"
H      0.101277100000    -1.193147500000    -0.043980900000    -0.867181739414     1.831396919427    -2.420745230351
H     -0.468757700000     0.038604300000     0.805058500000    -0.959690038110     0.871501193049    -1.802549139790
H      0.157425700000     0.694459200000    -0.810758200000    -0.019951762031    -1.544513207130     0.552787221223
H     -1.374794800000    -0.163796300000    -0.838256000000    -1.104700267305    -0.697694606284    -0.103718309321
C     -0.434960600000    -0.159499000000    -0.345495500000     2.951472384792    -0.461204519735     3.774379724441
5
Properties=species:S:1:pos:R:3:forces:R:3 energy=-1100.457698983680 pbc="F F F"
H      0.159286500000    -1.206490300000     0.003318700000    -1.485532096177     2.130004863022    -2.870019830521
H     -0.498753600000     0.007495900000     0.786893700000    -0.733741475314     1.253464307398    -1.393692284353
H      0.108819900000     0.684998700000    -0.852918900000     0.652648875512    -1.236289336989     0.880500054790
H     -1.350520700000    -0.059109500000    -0.829641000000    -2.163480628698    -1.350446325930    -0.554689837705
C     -0.435622400000    -0.163857500000    -0.345297800000     3.730105324676    -0.796682085433     3.938518962594
5
Properties=species:S:1:pos:R:3:forces:R:3 energy=-1100.302554626831 pbc="F F F"
H      0.196878900000    -1.190547800000     0.010842900000    -1.762491349526     1.937326377634    -2.953940644013
H     -0.538995200000    -0.006141500000     0.749920000000    -0.483881651321     1.563745060222    -0.386385412118
H      0.069370300000     0.658549600000    -0.883056600000     1.337693653292    -0.651157635567     0.946731677203
H     -1.354631500000     0.026739000000    -0.827924900000    -1.689472014258    -1.922002601641    -0.316862777412
C     -0.432093900000    -0.169134100000    -0.340610000000     2.598254205948    -0.928991064057     2.710302890138
5
Properties=species:S:1:pos:R:3:forces:R:3 energy=-1100.354343608826 pbc="F F F"
H      0.210146500000    -1.147957200000    -0.022580100000    -1.716005800876     1.305246328958    -2.668856704063
H     -0.586091600000     0.001995500000     0.707970200000    -0.292488717611     1.760331622708     0.955833383078
H      0.048373200000     0.623088400000    -0.900177200000     1.785682701784     0.024528326002     0.809074803602
H     -1.381545800000     0.085682300000    -0.830382000000    -0.467066635383    -2.470470369228     0.157505791498
C     -0.425581300000    -0.175461300000    -0.332808100000     0.690238406556    -0.619790174642     0.746288459684
5
Properties=species:S:1:pos:R:3:forces:R:3 energy=-1100.517915604041 pbc="F F F"
H      0.200036100000    -1.088008600000    -0.092845200000    -1.095341451094    -0.130869160745    -1.933521144669
H     -0.637264200000     0.034470800000     0.678744000000    -0.069265524371     1.677593516760     1.730403979662
H      0.051921500000     0.587826000000    -0.906046000000     1.842298397651     0.577058436889     0.606163326863
H     -1.415246300000     0.110353300000    -0.830926700000     0.587599960643    -2.753188894091     0.404434557667
C     -0.418254200000    -0.182428900000    -0.324086500000    -1.265188538694     0.629200412919    -0.807634985723
5
Properties=species:S:1:pos:R:3:forces:R:3 energy=-1100.663510941306 pbc="F F F"
H      0.175595100000    -1.031227700000    -0.189813900000     0.319176770431    -2.606841691152    -0.916804034156
H     -0.689050100000     0.089816200000     0.672203800000     0.438784498483     1.077189461411     1.258966468576
H      0.080788200000     0.560293100000    -0.903309800000     1.488360309867     0.833603129604     0.498279830107
H     -1.441155700000     0.096893400000    -0.826108800000     1.269919368867    -2.672867625296     0.394561520785
C     -0.412452600000    -0.188498100000    -0.316200800000    -3.516138103513     3.368762459232    -1.234900941178
5
Properties=species:S:1:pos:R:3:forces:R:3 energy=-1100.787710237853 pbc="F F F"
H      0.155212100000    -1.010124300000    -0.300096500000     1.301029719456    -4.251267974638    -0.245386104156
H     -0.734457900000     0.159757900000     0.682596000000     1.129897080179     0.076670302032     0.191238667509
H      0.130124000000     0.544048400000    -0.893409000000     0.814885497183     0.763617696294     0.542759918140
H     -1.449725800000     0.046424000000    -0.815955100000     1.557574412171    -2.228323855299     0.215047084572
C     -0.410702800000    -0.190636900000    -0.309668700000    -4.803078176586     5.638841033008    -0.703608143999
5
Properties=species:S:1:pos:R:3:forces:R:3 energy=-1101.056692611793 pbc="F F F"
H      0.150424400000    -1.044292400000    -0.413886800000     0.289917614256    -2.595631680526     0.380214764067
H     -0.764314600000     0.230863100000     0.696065100000     1.603597162217    -0.862708019577    -0.578035456164
H      0.190690600000     0.538234300000    -0.875836200000    -0.014038224316     0.466706680913     0.645809740589
H     -1.437118500000    -0.034860900000    -0.802968200000     1.296915954089    -1.455295920728    -0.121870299004
C     -0.414290500000    -0.186519900000    -0.303982700000    -3.176083973844     4.446723251649    -0.325913061219
5
Properties=species:S:1:pos:R:3:forces:R:3 energy=-1101.105785217548 pbc="F F F"
H      0.149449600000    -1.113670500000    -0.521776500000    -1.016511422245     0.118579286711     1.421820155052
H     -0.772175200000     0.290272100000     0.702021400000     1.689934812862    -1.482241083883    -0.854274800574
H      0.251097500000     0.538857300000    -0.849339200000    -0.810823153883     0.086749027182     0.649255019084
H     -1.407121000000    -0.136351000000    -0.791896700000     0.398932396488    -0.539417483779    -0.628480503980
C     -0.421492600000    -0.177307300000    -0.298749800000    -0.261789743558     1.816124565502    -0.588319869582
5
Properties=species:S:1:pos:R:3:forces:R:3 energy=-1100.825983052297 pbc="F F F"
H      0.135484100000    -1.182869100000    -0.609979800000    -1.335431082340     1.687209443306     2.305559800069
H     -0.756760100000     0.329304900000     0.696479200000     1.437915262051    -1.771798743670    -0.722531464688
H      0.300410800000     0.540792600000    -0.813998500000    -1.384179201942    -0.211036163339     0.444080971393
H     -1.371788900000    -0.245564000000    -0.789612300000    -0.682319408224     0.246877344101    -1.104288890768
C     -0.429075000000    -0.165860400000    -0.294209100000     1.964014430454     0.048336743065    -0.922666149804
5
Properties=species:S:1:pos:R:3:forces:R:3 energy=-1100.518972494274 pbc="F F F"
H      0.103564800000    -1.229613000000    -0.666366100000    -1.000210626977     2.245087449170     2.797823248326
H     -0.721504600000     0.343878900000     0.681273200000     0.930019505398    -1.754675195328    -0.195558121145
H      0.330775800000     0.540015600000    -0.772690500000    -1.585136640131    -0.301950377955     0.024425481868
H     -1.345138500000    -0.351474500000    -0.802215000000    -1.057597653850     0.915621326613    -1.102591962554
C     -0.434495500000    -0.154295000000    -0.290779800000     2.712976837627    -1.104134624567    -1.523738692025
5
Properties=species:S:1:pos:R:3:forces:R:3 energy=-1100.347838726997 pbc="F F F"
H      0.057888100000    -1.245483800000    -0.683927400000    -0.434876421384     2.294041257041     2.978880346552
H     -0.673406100000     0.334210400000     0.663788300000     0.271199981835    -1.459718218497     0.710961499593
H      0.339449600000     0.535322600000    -0.731219700000    -1.353171695486    -0.124852778896    -0.548056391050
H     -1.332301400000    -0.444417800000    -0.829570900000    -0.622361277996     1.683044255871    -0.540445925121
C     -0.436857200000    -0.144046900000    -0.289194300000     2.139260835098    -2.392360249318    -2.601442374107
5
Properties=species:S:1:pos:R:3:forces:R:3 energy=-1100.311792892386 pbc="F F F"
H      0.006189900000    -1.229594700000    -0.660085100000     0.199877574781     2.004689285522     2.881384107348
H     -0.621464400000     0.304229800000     0.656313200000    -0.345504868781    -1.061042932345     1.632753474257
H      0.329615100000     0.529182800000    -0.697477000000    -0.751533510527     0.305138546115    -1.161213119037
H     -1.328116100000    -0.513830900000    -0.864375200000    -0.102689867980     2.412466277550     0.136165633656
C     -0.436754900000    -0.136615300000    -0.290652100000     0.999953516641    -3.661302598909    -3.489038674156
5
Properties=species:S:1:pos:R:3:forces:R:3 energy=-1100.447608457514 pbc="F F F"
H     -0.042584100000    -1.186298900000    -0.596336400000     0.948017228880     1.116321654467     2.399302228375
H     -0.574064300000     0.259165900000     0.670765500000    -0.720885958541    -0.833860239939     1.768147776906
H      0.309385000000     0.527405000000    -0.679811700000    -0.050547891950     0.798070481244    -1.610384875073
H     -1.325752300000    -0.549848100000    -0.897547300000     0.110557444245     2.818803451699     0.592125102547
C     -0.435490500000    -0.133389900000    -0.296089900000    -0.286883712298    -3.899643879874    -3.149087388621
5
Properties=species:S:1:pos:R:3:forces:R:3 energy=-1100.688682289720 pbc="F F F"
H     -0.077799300000    -1.128728200000    -0.499537000000     1.922876776781    -0.896698005924     1.473447910411
H     -0.536499500000     0.202286000000     0.708606500000    -0.879574457583    -0.706950578360     0.787117580954
H      0.288045900000     0.536405000000    -0.684197000000     0.317788374619     0.952696636985    -1.635118889343
H     -1.322114100000    -0.546902700000    -0.922726200000     0.088651643664     2.785584796358     0.793956715877
C     -0.434552400000    -0.134548600000    -0.305087000000    -1.449639493348    -2.134272894590    -1.419403317899
5
Properties=species:S:1:pos:R:3:forces:R:3 energy=-1100.863286597170 pbc="F F F"
H     -0.086124600000    -1.084362400000    -0.382112500000     2.796486274582    -3.267152454661     0.543942625683
H     -0.511199600000     0.135828700000     0.757039800000    -0.984372630313    -0.322879159261    -0.569756503363
H      0.270535700000     0.558030000000    -0.710866200000     0.179720124481     0.523476642981    -1.147637693325
H     -1.317346200000    -0.505473500000    -0.937001200000    -0.042371783283     2.300469015427     0.804858194100
C     -0.435258900000    -0.138086200000    -0.315750100000    -1.949976206138     0.766034533447     0.368130578301
5
Properties=species:S:1:pos:R:3:forces:R:3 energy=-1101.063764851021 pbc="F F F"
H     -0.056822400000    -1.082294600000    -0.256721400000     2.420128165546    -2.915579781963    -0.178948793475
H     -0.499685100000     0.065217700000     0.798025700000    -1.082845888791     0.361394287512    -1.507849273294
H      0.255302000000     0.586637700000    -0.753260800000    -0.165990432568    -0.200031840982    -0.364633877739
H     -1.313359800000    -0.432285900000    -0.940230200000    -0.337534448382     1.429584887182     0.620510083581
C     -0.438093800000    -0.140976100000    -0.326064100000    -0.833860239939     1.324529604117     1.430819016793
5
Properties=species:S:1:pos:R:3:forces:R:3 energy=-1101.113621008267 pbc="F F F"
H      0.004917300000    -1.118378900000    -0.134462600000     0.875666380484    -0.395898494530    -1.333425621723
H     -0.503249000000    -0.000296200000     0.818577100000    -1.109379675410     1.083102999127    -1.868523651867
H      0.237918800000     0.612624100000    -0.800781700000    -0.373478473278    -0.784803587935     0.408754011302
H     -1.314350100000    -0.339260900000    -0.934983600000    -0.820490502496     0.407828414095     0.269091677084
C     -0.441788200000    -0.142536000000    -0.334680200000     1.427579426566    -0.310846395562     2.523949319002
5
Properties=species:S:1:pos:R:3:forces:R:3 energy=-1100.820253422856 pbc="F F F"
H      0.079244800000    -1.161219400000    -0.030803200000    -0.467272323651     1.281283645694    -2.447176172836
H     -0.522206600000    -0.050841800000     0.813501100000    -1.017437019452     1.641083849126    -1.752978267114
H      0.215622500000     0.627995600000    -0.842819100000    -0.315063005063    -1.051324161665     0.980258864946
H     -1.326579400000    -0.240305100000    -0.925832300000    -1.079554876498    -0.443258218320     0.036252557299
C     -0.443890700000    -0.144392500000    -0.340370500000     2.878915848128    -1.427785114834     3.183334485303
5
Properties=species:S:1:pos:R:3:forces:R:3 energy=-1100.475975238989 pbc="F F F"
H      0.147731600000    -1.187446400000     0.039228200000    -1.229501624133     1.832888159373    -3.038015723706
H     -0.555298100000    -0.078656300000     0.784440800000    -0.829283675968     1.984891789693    -1.148254758130
H      0.189188500000     0.629031900000    -0.871458800000    -0.022420021251    -0.983498455173     1.268890927525
H     -1.353095500000    -0.147271800000    -0.915722800000    -0.666378567426    -1.060785822010     0.161876667201
C     -0.442768500000    -0.147852000000    -0.342428300000     2.747583888779    -1.773598516018     2.755194354708
5
Properties=species:S:1:pos:R:3:forces:R:3 energy=-1100.292913632763 pbc="F F F"
H      0.199392000000    -1.188557700000     0.067237800000    -1.646123211700     1.883538895457    -3.176289662112
H     -0.599979800000    -0.078909900000     0.739908500000    -0.620407239447     2.127022383131    -0.041857562612
H      0.162603100000     0.616654800000    -0.882688400000     0.410245251248    -0.606780391668     1.248424944823
H     -1.388429100000    -0.068984800000    -0.903197500000     0.174937872242    -1.573669519170     0.414976081420
C     -0.438506300000    -0.153370700000    -0.341322800000     1.681244483523    -1.830419900153     1.553614913005
5
Properties=species:S:1:pos:R:3:forces:R:3 energy=-1100.313896876754 pbc="F F F"
H      0.228194900000    -1.163538800000     0.051153500000    -1.879527974224     1.698213765663    -2.970909926153
H     -0.653384700000    -0.049588100000     0.694935900000    -0.429734214675     2.083930690909     1.153345542772
H      0.141803500000     0.596080800000    -0.876772400000     0.874175140538     0.019180431025     0.940046808481
H     -1.421460700000    -0.012618900000    -0.885101300000     0.909193568227    -1.982834907009     0.471540355220
C     -0.432271100000    -0.161038600000    -0.338385200000     0.526099168403    -1.818747090923     0.405925797612
5
Properties=species:S:1:pos:R:3:forces:R:3 energy=-1100.557334289949 pbc="F F F"
H      0.231006000000    -1.115214500000    -0.006087400000    -1.806302950687     1.075389689063    -2.372459909354
H     -0.712633000000     0.008607700000     0.665112800000    -0.081915352875     1.762851303996     1.518133686712
H      0.133106600000     0.575849600000    -0.857886000000     1.212892296463     0.698517359357     0.472877328964
H     -1.442157500000     0.016188500000    -0.860711300000     1.311314132874    -2.215211228191     0.266006353059
C     -0.425414600000    -0.170803300000    -0.334881300000    -0.635833859574    -1.321907078695     0.115442540618
5
Properties=species:S:1:pos:R:3:forces:R:3 energy=-1100.868140836323 pbc="F F F"
H      0.209446200000    -1.053073800000    -0.095952700000    -0.928888219922    -0.619841596709    -1.277221302393
H     -0.772580200000     0.090912800000     0.655190800000     0.621384258721     0.963289582806     0.785317808606
H      0.140987100000     0.565039600000    -0.832256700000     1.204767609863     1.070041794086     0.105929458206
H     -1.444874900000     0.014234700000    -0.832798600000     1.377288644951    -2.222461739651    -0.117088046765
C     -0.419354600000    -0.181961300000    -0.331171000000    -2.274243761211     0.808509160864     0.503576303017
5
Properties=species:S:1:pos:R:3:forces:R:3 energy=-1100.897444233705 pbc="F F F"
H      0.176242500000    -1.001231500000    -0.203510200000     0.984475474447    -3.522668706033    -0.066694421016
H     -0.823703800000     0.186268600000     0.656044600000     1.422128687454    -0.195969497682    -0.161876667201
H      0.165196800000     0.568543800000    -0.804817700000     0.745311440409     0.888007676586     0.002519681287
H     -1.428739500000    -0.018527500000    -0.806660800000     1.058574673125    -1.956763918994    -0.619121687769
C     -0.416012200000    -0.191965600000    -0.326882300000    -4.210336009234     4.786983069587     0.845378782968
5
Properties=species:S:1:pos:R:3:forces:R:3 energy=-1100.816881932127 pbc="F F F"
H      0.155658800000    -0.996720000000    -0.312969300000     1.874385767515    -4.672517548244     0.436161973061
H     -0.855307700000     0.278986900000     0.655207700000     1.898914093517    -1.274650199039    -0.651311901768
H      0.199539900000     0.584027500000    -0.777183800000     0.027870760363     0.320462322108     0.033630031877
H     -1.398402800000    -0.078341600000    -0.789318200000     0.216589746585    -1.398680224861    -1.223896618821
C     -0.417412500000    -0.196507900000    -0.321569600000    -4.017451835578     7.025282805901     1.405210827382
5
Properties=species:S:1:pos:R:3:forces:R:3 energy=-1100.917121331167 pbc="F F F"
H      0.158180200000    -1.052702300000    -0.416287300000     0.378003615182    -2.017082003691     0.919992202316
H     -0.860865900000     0.354291100000     0.645772900000     1.913620804705    -1.990702483274    -0.690649783092
H      0.234337200000     0.603958300000    -0.749175600000    -0.639793358740    -0.291665964537    -0.011004322357
H     -1.365423000000    -0.157589700000    -0.789085300000    -0.903485718780    -0.715023842893    -1.778637878593
C     -0.423200600000    -0.193248600000    -0.314645000000    -0.748088232032     5.014371450261     1.560042671391
5
Properties=species:S:1:pos:R:3:forces:R:3 energy=-1100.835365266084 pbc="F F F"
H      0.166385600000    -1.136923500000    -0.506250100000    -0.960975589787     0.868158758689     1.757451986951
H     -0.840076400000     0.402181000000     0.627028600000     1.536645630865    -2.303708605654    -0.402994739788
H      0.260489800000     0.620014700000    -0.721505200000    -1.041194014448    -0.727108028659    -0.209390657192
H     -1.344147900000    -0.246970900000    -0.813099900000    -1.238809018277    -0.105415237535    -1.769896127187
C     -0.429969900000    -0.184139000000    -0.305995500000     1.704230147513     2.268021691093     0.624880959284
5
Properties=species:S:1:pos:R:3:forces:R:3 energy=-1100.611575834167 pbc="F F F"
H      0.162390800000    -1.210789100000    -0.571898000000    -1.269662258531     2.298206444475     2.376470830587
H     -0.798132200000     0.418314800000     0.603092000000     0.844710296095    -2.177158898544     0.278553337429
H      0.272479800000     0.626229700000    -0.696908200000    -1.086908232091    -0.871552615117    -0.528875960026
H     -1.338716100000    -0.337711900000    -0.860832900000    -0.375998154566     0.592536479084    -0.898446356205
C     -0.434971200000    -0.172291400000    -0.296701700000     1.887704082892     0.157865745968    -1.227856117986
5
Properties=species:S:1:pos:R:3:forces:R:3 energy=-1100.374557859049 pbc="F F F"
H      0.141178200000    -1.253526500000    -0.604654700000    -1.071584456099     2.797668982125     2.665462847635
H     -0.744603200000     0.404522600000     0.583627300000    -0.045148574905    -1.583285445716     1.426191030754
H      0.269632200000     0.620623300000    -0.679776900000    -0.804806772033    -0.687615881134    -0.898703466540
H     -1.338423800000    -0.420000400000    -0.920793100000     0.630588808731     1.405159405314     0.283489855870
C     -0.437821900000    -0.160262200000    -0.288892200000     1.290642461904    -1.932184170925    -3.476697378054
5
Properties=species:S:1:pos:R:3:forces:R:3 energy=-1100.250012977898 pbc="F F F"
H      0.105154700000    -1.257610100000    -0.600377800000    -0.688541478342     2.818289231028     2.693642140401
H     -0.691556400000     0.368736300000     0.584171200000    -0.796579241299    -0.865124856730     2.548374800870
H      0.255763200000     0.605721200000    -0.675185800000    -0.311669148635    -0.222246173965    -1.226107767705
H     -1.330043700000    -0.482812400000    -0.977156400000     1.037697313886     2.054208736131     1.170880467650
C     -0.439142100000    -0.150487800000    -0.285122800000     0.759195398524    -3.785538313000    -5.186943907417
5
Properties=species:S:1:pos:R:3:forces:R:3 energy=-1100.444447855027 pbc="F F F"
H      0.059684800000    -1.222799700000    -0.558706200000    -0.124595668560     2.316049901755     2.433086526453
H     -0.649015600000     0.320154600000     0.618868300000    -1.021190830350    -0.681702343419     2.396268326416
H      0.237538500000     0.587818800000    -0.687554100000     0.186045038733     0.331260956197    -1.368495471479
H     -1.307797900000    -0.517257200000    -1.017660800000     0.871295504781     2.364232378619     1.600254727856
C     -0.439585100000    -0.145036300000    -0.287270400000     0.088497377463    -4.329789471086    -5.061731174051
5
Properties=species:S:1:pos:R:3:forces:R:3 energy=-1100.860931723823 pbc="F F F"
H      0.012926100000    -1.156787300000    -0.483423800000     0.838796758380     0.734975604924     1.783317286698
H     -0.620289600000     0.261537900000     0.685169500000    -0.842550569278    -0.878031795570     0.665915768822
H      0.221629200000     0.574264700000    -0.718672300000     0.441047069435     0.638456384995    -1.159053392219
H     -1.273800500000    -0.519046300000    -1.036268900000     0.307709649469     2.282368447811     1.582719802978
C     -0.439940900000    -0.144470700000    -0.295159500000    -0.744900063873    -2.777871486295    -2.872642355943
5
Properties=species:S:1:pos:R:3:forces:R:3 energy=-1101.025914629403 pbc="F F F"
H     -0.021389900000    -1.082395800000    -0.383460700000     2.337235793397    -2.339549786416     0.921020643658
H     -0.603398700000     0.191108900000     0.760580500000    -0.675326007099    -0.702836812993    -1.287351449610
H      0.211497800000     0.569093000000    -0.765555500000     0.368027734167     0.487635462219    -0.560294843018
H     -1.235866900000    -0.489378500000    -1.033246100000    -0.581943533263     1.764393966009     1.103054761158
C     -0.441163500000    -0.146962900000    -0.306379100000    -1.447891143067     0.790100060845    -0.176686222523
5
Properties=species:S:1:pos:R:3:forces:R:3 energy=-1100.910139433740 pbc="F F F"
H     -0.023619800000    -1.039706800000    -0.270113200000     3.200458033644    -4.348815635909     0.378106459316
H     -0.596156800000     0.111441300000     0.818954600000    -0.662316224125    -0.026173832149    -2.438228733162
H      0.206350600000     0.570431400000    -0.820058300000     0.148095553221     0.070293965713     0.230165172297
H     -1.206427700000    -0.435499900000    -1.015320900000    -1.752412624376     0.834580148879     0.172932411625
C     -0.443975700000    -0.148597200000    -0.317903600000    -0.933310517692     3.469858243131     1.656973267857
5
Properties=species:S:1:pos:R:3:forces:R:3 energy=-1100.911180541370 pbc="F F F"
H      0.016162800000    -1.052588400000    -0.151942400000     1.906781669782    -2.311061961247    -0.522705311975
H     -0.598265000000     0.031620800000     0.844193100000    -0.713686869149     0.838693914246    -2.728506301888
H      0.203350800000     0.572865900000    -0.871444700000    -0.016712171804    -0.267240482669     0.936292997583
H     -1.201391000000    -0.370025400000    -0.995017800000    -2.749949303865    -0.158842765242    -0.749630894045
C     -0.447661900000    -0.146617800000    -0.327511800000     1.573412408835     1.898708405249     3.064806620660
5
Properties=species:S:1:pos:R:3:forces:R:3 energy=-1100.812116674206 pbc="F F F"
H      0.082112000000    -1.097404700000    -0.041704100000     0.075898971026     0.316040024338    -1.884618758866
H     -0.610304600000    -0.036585600000     0.831935900000    -0.717389257979     1.600511838191    -2.385469692327
H      0.200255200000     0.571793700000    -0.910006600000    -0.064740382467    -0.406234330015     1.399143023465
H     -1.233325200000    -0.306228500000    -0.984001300000    -2.476743861413    -0.719703250998    -0.693477996782
C     -0.449598500000    -0.142496500000    -0.333601600000     3.183180219102    -0.790665703583     3.564834801048
5
Properties=species:S:1:pos:R:3:forces:R:3 energy=-1100.583034899822 pbc="F F F"
H      0.150120100000    -1.139662800000     0.042796600000    -0.977327807122     1.462083633584    -2.748612330120
H     -0.632331500000    -0.082650800000     0.786995300000    -0.676508714642     2.130776194028    -1.407730508669
H      0.196373800000     0.565250800000    -0.929321900000    -0.008073264533    -0.353989509851     1.563539371953
H     -1.298251900000    -0.252069900000    -0.981599500000    -0.833757395805    -0.910427697837     0.245848902760
C     -0.448032300000    -0.139180800000    -0.335677400000     2.495410071767    -2.328442619924     2.346851719942
5
Properties=species:S:1:pos:R:3:forces:R:3 energy=-1100.334473582637 pbc="F F F"
H      0.205080100000    -1.162387400000     0.089501600000    -1.475350526893     1.770718880261    -3.020789331230
H     -0.663915800000    -0.099176300000     0.723239800000    -0.707104844561     2.405318610224     0.312903278246
H      0.192480400000     0.553986200000    -0.927105500000     0.137091230863    -0.098936057082     1.415700929068
H     -1.374791400000    -0.210596900000    -0.976057300000     0.911816093648    -1.026847257730     0.979693222208
C     -0.443591300000    -0.138524400000    -0.335070800000     1.133342358674    -3.050048487405     0.312903278246
5
Properties=species:S:1:pos:R:3:forces:R:3 energy=-1100.199268368898 pbc="F F F"
H      0.239592100000    -1.160583400000     0.094315500000    -1.773495671884     1.820444019137    -2.926995480857
H     -0.705543900000    -0.082261700000     0.664131200000    -0.831340558652     2.466510870062     2.180912709441
H      0.190602100000     0.541568700000    -0.905391200000     0.360571534438     0.351418406496     0.990543278364
H     -1.439342900000    -0.183485600000    -0.957524800000     2.021298613193    -1.124343496933     1.110253850551
C     -0.437765700000    -0.141433500000    -0.334064300000     0.223068927039    -3.513824110494    -1.354611513365
5
Properties=species:S:1:pos:R:3:forces:R:3 energy=-1100.396739492480 pbc="F F F"
H      0.249398300000    -1.133482300000     0.058461900000    -1.941491565068     1.677490672626    -2.543901081033
H     -0.758421400000    -0.031091900000     0.633724300000    -0.611356955639     2.259074251419     2.534953641359
H      0.193769700000     0.534152000000    -0.869966300000     0.571196321241     0.859365585216     0.433847980042
H     -1.476322800000    -0.172067100000    -0.923944500000     2.495204383498    -1.177359648104     0.806298011979
C     -0.431659500000    -0.148446000000    -0.334468200000    -0.513346495764    -3.618776549425    -1.231404240616
5
Properties=species:S:1:pos:R:3:forces:R:3 energy=-1100.892112978955 pbc="F F F"
H      0.232475600000    -1.083548800000    -0.012546400000    -1.688546417050     0.939275477475    -1.751641293370
H     -0.818973100000     0.051038900000     0.636532300000     0.307709649469     1.491445633892     1.057032011112
H      0.204643700000     0.538466700000    -0.828311600000     0.532424082655     1.107837013397     0.005090784642
H     -1.478977400000    -0.177057300000    -0.879359700000     2.422442158565    -1.161264541104     0.246723077900
C     -0.426193700000    -0.159583500000    -0.336156700000    -1.574132317774    -2.377704960197     0.442949685917
5
Properties=species:S:1:pos:R:3:forces:R:3 energy=-1101.192316608764 pbc="F F F"
H      0.193179500000    -1.022096100000    -0.107449200000    -0.347921705934    -1.187644061522    -0.444800880333
H     -0.875065000000     0.153480400000     0.654121400000     1.364278861978     0.247957207510    -0.516380397723
H      0.222482800000     0.557673100000    -0.786252700000     0.093485317970     0.842704835479    -0.154986110211
H     -1.448467800000    -0.198186900000    -0.831559200000     1.681347327657    -1.040319839308    -0.525842058067
C     -0.422593700000    -0.173289600000    -0.337383500000    -2.791035535470     1.137558968176     1.642112290467
5
Properties=species:S:1:pos:R:3:forces:R:3 energy=-1100.914258149129 pbc="F F F"
H      0.150444000000    -0.978874500000    -0.208591300000     2.017853334698    -4.419932354695     0.799664565324
H     -0.912588400000     0.259413500000     0.665497400000     1.986588717907    -0.993268647920    -1.267656797915
H      0.241411100000     0.588227900000    -0.746226900000    -0.529390180696     0.199363354110    -0.198694867238
H     -1.395504600000    -0.233746400000    -0.791424300000     0.023139930191    -0.805320992704    -1.549398303503
C     -0.422241300000    -0.185499000000    -0.336749600000    -3.498603178635     6.018901530874     2.215828292996
5
Properties=species:S:1:pos:R:3:forces:R:3 energy=-1100.606581456376 pbc="F F F"
H      0.133617300000    -0.993922500000    -0.299804900000     2.494638740760    -4.698948490728     1.103671825963
H     -0.922887600000     0.351802200000     0.659864700000     2.100591440646    -1.931207151650    -1.374820385731
H      0.253128200000     0.621576000000    -0.709096800000    -0.987457954338    -0.452051391792    -0.330849579660
H     -1.342887900000    -0.280553900000    -0.773076100000    -2.099305888969    -0.542657074006    -2.603447834724
C     -0.425716800000    -0.190967100000    -0.333448100000    -1.508312071898     7.624709841975     3.205548818286
5
Properties=species:S:1:pos:R:3:forces:R:3 energy=-1100.696742302260 pbc="F F F"
H      0.148658000000    -1.070016000000    -0.375576500000     0.570013613698    -1.245031088395     1.311314132874
H     -0.904232200000     0.417578100000     0.635395500000     1.811239469128    -2.495410071767    -1.103826092164
H      0.251441800000     0.648876300000    -0.676773600000    -1.085108459743    -0.866976051146    -0.608683008150
H     -1.317750200000    -0.334935600000    -0.790132600000    -2.629827355141    -0.230062328163    -2.758331100800
C     -0.430867000000    -0.187929500000    -0.326484200000     1.333374199656     4.837530961537     3.159577490307
5
Properties=species:S:1:pos:R:3:forces:R:3 energy=-1100.743430509945 pbc="F F F"
H      0.172520900000    -1.164581000000    -0.432735700000    -0.842190614808     1.612133225354     1.711634925174
H     -0.860615800000     0.448903900000     0.595925500000     1.167692299491    -2.619748629992    -0.423100768020
H      0.235028500000     0.664413900000    -0.653099000000    -0.784906432069    -0.956913246487    -0.993782868591
H     -1.326575600000    -0.392116800000    -0.844062300000    -0.894229746703     0.406285752082    -1.509031980837
C     -0.434765500000    -0.179224200000    -0.316000400000     1.353428805821     1.558294321110     1.214229270208
5
Properties=species:S:1:pos:R:3:forces:R:3 energy=-1100.542771028263 pbc="F F F"
H      0.185712700000    -1.238413500000    -0.466146600000    -1.307920276446     2.929360895943     1.943445603618
H     -0.801086800000     0.444320900000     0.551331900000     0.152466428923    -2.072617836149     0.945394703458
H      0.207961500000     0.666944100000    -0.643381800000    -0.200803171988    -0.714355356021    -1.410404456158
H     -1.347961300000    -0.443480300000    -0.918718500000     0.920403578853     1.149026089137     0.123001584480
C     -0.437154800000    -0.168640500000    -0.304167700000     0.435647752391    -1.291465214977    -1.601694545734
5
Properties=species:S:1:pos:R:3:forces:R:3 energy=-1100.239277541884 pbc="F F F"
H      0.181080100000    -1.272187100000    -0.472585400000    -1.327717772276     3.385526053103     1.965608514534
H     -0.739658800000     0.411633300000     0.520875200000    -1.029829737621    -0.797299150238     3.003408672554
H      0.178105700000     0.659696000000    -0.653277900000     0.399240928890    -0.287243666767    -1.701093401420
H     -1.357704300000    -0.479081100000    -0.992200900000     1.723050624068     1.628639708890     1.321804234561
C     -0.438950700000    -0.159563800000    -0.294239500000     0.234896002469    -3.929674367055    -4.590036552630
5
Properties=species:S:1:pos:R:3:forces:R:3 energy=-1100.244655328104 pbc="F F F"
H      0.158117200000    -1.259150200000    -0.451711000000    -1.103671825963     3.294560416420     1.799926614368
H     -0.691960000000     0.367404600000     0.531543400000    -1.625400118663     0.126498285043     4.179894145517
H      0.153471400000     0.648268800000    -0.686562700000     0.692552399575     0.009307394143    -1.619692269216
H     -1.344230700000    -0.492264800000    -1.047777800000     1.730095447259     1.774215580823     1.998981436075
C     -0.440442900000    -0.154981200000    -0.289599100000     0.306166987457    -5.204787364697    -6.359469881214
5
Properties=species:S:1:pos:R:3:forces:R:3 energy=-1100.803555427935 pbc="F F F"
H      0.120110400000    -1.200870700000    -0.405886600000    -0.505633185701     2.398273787033     1.414621065659
H     -0.665781200000     0.323148800000     0.597126200000    -1.235312317715    -0.321747873785     2.493713143553
H      0.138052400000     0.636555200000    -0.741910400000     0.587857070978    -0.033270077408    -1.021396518618
H     -1.307129100000    -0.480962600000    -1.075917500000     1.203636324387     1.605242668364     2.186671980956
C     -0.441622900000    -0.156228800000    -0.292118000000    -0.050547891950    -3.649321257277    -5.074432424623
5
Properties=species:S:1:pos:R:3:forces:R:3 energy=-1101.267809973353 pbc="F F F"
H      0.075951700000    -1.110857000000    -0.340479600000     0.891041578544    -0.084486456230     0.854737599178
H     -0.656682200000     0.274314700000     0.696132500000    -0.625189491686    -0.892841350892    -0.482544677577
H      0.130682300000     0.624130900000    -0.811154500000     0.324678931609    -0.281021596649    -0.081709664607
H     -1.253772200000    -0.447567900000    -1.074118000000     0.148712618026     1.100072281267     1.775295444232
C     -0.442892700000    -0.161553500000    -0.300436700000    -0.738780837889     0.158020012169    -2.065881545360
5
Properties=species:S:1:pos:R:3:forces:R:3 energy=-1101.006316172846 pbc="F F F"
H      0.045318200000    -1.023972000000    -0.262832200000     3.025314473134    -3.945666629920     0.522911000243
H     -0.656720300000     0.213915800000     0.789615100000    -0.314857316795    -0.716103706302    -2.518807112293
H      0.127999700000     0.607863300000    -0.881580200000     0.171029795143    -0.455856624757     0.832728954463
H     -1.199108200000    -0.399203300000    -1.048420100000    -1.558757119714     0.231604990176     0.550987448875
C     -0.445034100000    -0.166579100000    -0.311227600000    -1.322729831768     4.885662016334     0.612231130779
5
Properties=species:S:1:pos:R:3:forces:R:3 energy=-1100.596606850715 pbc="F F F"
H      0.054907600000    -0.988630800000    -0.177580900000     3.372413425995    -4.784771920702     0.312183369306
H     -0.661442100000     0.144027700000     0.849243500000    -0.239318300239    -0.068494193365    -3.351433222622
H      0.127915700000     0.585501400000    -0.940691300000     0.186456415270    -0.391784729162     1.458226978552
H     -1.166684000000    -0.347781100000    -1.015674200000    -3.526422516931    -0.768965591271    -1.150671595284
C     -0.448510600000    -0.166224100000    -0.321356000000     0.206613865570     6.014119278634     2.731797314182
5
Properties=species:S:1:pos:R:3:forces:R:3 energy=-1100.644154393971 pbc="F F F"
H      0.108354300000    -1.015263300000    -0.089228900000     1.106859994123    -1.693894312028    -0.805526680972
H     -0.669582400000     0.073294900000     0.862844600000    -0.227645491010     0.688027257671    -3.383469170419
H      0.130542800000     0.557895100000    -0.979799100000     0.289609081854    -0.123618649286     1.727215811502
H     -1.181815600000    -0.306567000000    -0.997505300000    -3.944689610645    -1.312702528686    -1.578400349342
C     -0.451617300000    -0.159295700000    -0.328334900000     2.775608915343     2.442445342664     4.039974700964
5
Properties=species:S:1:pos:R:3:forces:R:3 energy=-1100.736471197970 pbc="F F F"
H      0.177946700000    -1.066844400000    -0.012114400000    -0.811594484889     0.677485733917    -1.943754136020
H     -0.680897600000     0.012101100000     0.829799700000    -0.214275753566     1.368444049412    -2.752211874817
H      0.137232000000     0.528638200000    -0.995093400000     0.400989279172     0.220446401617     1.671268602508
H     -1.249125600000    -0.282994400000    -0.999079400000    -1.928481782094    -1.249659074433    -0.155500330882
C     -0.451772400000    -0.149452600000    -0.330794200000     2.553362741378    -1.016614266379     3.180557693680
5
Properties=species:S:1:pos:R:3:forces:R:3 energy=-1100.615548968641 pbc="F F F"
H      0.237457100000    -1.110703500000     0.038581000000    -1.665612175128     1.567344604918    -2.432623727849
H     -0.695336700000    -0.030081800000     0.759344600000    -0.315731491936     1.918763011414    -1.134062267613
H      0.149505900000     0.502492000000    -0.987311900000     0.486247066408     0.586160142764     1.334814017535
H     -1.343006900000    -0.276689100000    -1.003062400000     0.544405424287    -0.967609036442     1.176331206762
C     -0.449055700000    -0.140665800000    -0.329628300000     0.950588332235    -3.104555878521     1.055643615300
5
Properties=species:S:1:pos:R:3:forces:R:3 energy=-1100.334560114845 pbc="F F F"
H      0.274226100000    -1.133321500000     0.055743600000    -1.996718865123     1.814427637288    -2.455557969772
H     -0.714601100000    -0.045558100000     0.674552000000    -0.747162634825     2.327517022716     1.720582364847
H      0.168535700000     0.484545400000    -0.961035600000     0.521882558901     0.938709834737     0.833705973738
H     -1.430351000000    -0.283943400000    -0.991709300000     2.151396442932    -0.685250466048     1.578503193476
C     -0.445140400000    -0.135455600000    -0.327283000000     0.070499653981    -4.395661139028    -1.677233562290
5
Properties=species:S:1:pos:R:3:forces:R:3 energy=-1100.191248629209 pbc="F F F"
H      0.283240100000    -1.130766600000     0.038814400000    -2.130621927827     1.833299535910    -2.210480398018
H     -0.744472200000    -0.028644100000     0.613500900000    -1.229347357932     2.539838737733     4.122507118644
H      0.194728700000     0.479607900000    -0.923042600000     0.429271416071     1.170160558711     0.366279383885
H     -1.488528000000    -0.300846300000    -0.958959600000     2.929258051809    -0.446394964412     1.357542571189
C     -0.441054700000    -0.135362300000    -0.326849400000     0.000771331006    -5.096492491405    -3.633020462010
5
Properties=species:S:1:pos:R:3:forces:R:3 energy=-1100.593700946802 pbc="F F F"
H      0.262682200000    -1.102874000000    -0.008809700000    -2.018161867100     1.543021967184    -1.714463138864
H     -0.790241800000     0.023190200000     0.605860300000    -0.669721001786     2.192225564201     3.138288754532
H      0.226642000000     0.490738700000    -0.879695800000     0.089525818805     1.130051346380     0.084949254833
H     -1.506371500000    -0.324047200000    -0.907568600000     3.096122659518    -0.248471428181     0.805115304436
C     -0.437018400000    -0.141150400000    -0.330337800000    -0.497508499100    -4.616930293719    -2.313581642535
5
Properties=species:S:1:pos:R:3:forces:R:3 energy=-1101.166713415653 pbc="F F F"
H      0.214621800000    -1.054323800000    -0.079982700000    -1.230427221341     0.408291212698    -0.821210411435
H     -0.844400100000     0.104767100000     0.640073800000     0.690804049294     1.077960792418     0.372707142272
H      0.259489100000     0.517287900000    -0.834933900000    -0.512420898557     0.748910985106    -0.010901478223
H     -1.481634100000    -0.350767100000    -0.845184600000     2.570074913182    -0.088805909865     0.000565642738
C     -0.433622300000    -0.152170900000    -0.336405400000    -1.517979420511    -2.146099970021     0.459044792917
5
Properties=species:S:1:pos:R:3:forces:R:3 energy=-1101.182084311277 pbc="F F F"
H      0.150858900000    -1.001963400000    -0.162157000000     0.806812232650    -2.285762304239     0.458324883977
H     -0.889406500000     0.201223400000     0.680864700000     1.669777362562    -0.239369722306    -1.393846550555
H      0.285106700000     0.554055600000    -0.790284400000    -1.157356464005     0.141256418298    -0.070962452585
H     -1.422218800000    -0.378841600000    -0.783167500000     0.910170587502    -0.032190213999    -1.126863178221
C     -0.431981100000    -0.165505500000    -0.342060900000    -2.229403718708     2.416168666380     2.133347297383
5
Properties=species:S:1:pos:R:3:forces:R:3 energy=-1100.597264822029 pbc="F F F"
H      0.098794600000    -0.982026200000    -0.238323800000     2.995232563886    -5.046613086327     1.376414469811
H     -0.911776300000     0.294631300000     0.703487500000     2.019138886375    -1.312291152149    -2.009265849493
H      0.294809700000     0.592810400000    -0.746755900000    -1.556545970829    -0.458839104648    -0.235718755543
H     -1.351663300000    -0.407655500000    -0.737305700000    -2.009728648097    -0.209904877863    -2.533513823481
C     -0.432822800000    -0.175965500000    -0.345244100000    -1.448148253402     7.027493954786     3.402135380773
5
Properties=species:S:1:pos:R:3:forces:R:3 energy=-1100.382346574070 pbc="F F F"
H      0.085092300000    -1.027332800000    -0.296356400000     2.448101770044    -3.622324672055     1.422282953656
H     -0.906366800000     0.370057400000     0.698656500000     1.932595547462    -2.047215335006    -2.012402595586
H      0.283204500000     0.625419300000    -0.706703500000    -1.536594208798    -0.822958761716    -0.549136254459
H     -1.308314900000    -0.439423900000    -0.726294200000    -4.016371972169    -0.349721478282    -3.355546987989
C     -0.435144900000    -0.178671700000    -0.344425600000     1.172011753126     6.841911714657     4.494751462312
5
Properties=species:S:1:pos:R:3:forces:R:3 energy=-1100.690375654272 pbc="F F F"
H      0.104107900000    -1.120696700000    -0.334522100000     0.528104629019     0.084640722431     1.351988987943
H     -0.874243100000     0.417193900000     0.666091300000     1.534177371644    -2.446764796299    -1.608276570322
H      0.250651400000     0.646938600000    -0.674501100000    -1.031423821701    -0.815811094390    -1.001084802117
H     -1.316668200000    -0.475087200000    -0.760151900000    -2.490576397460     0.279838889106    -2.490524975393
C     -0.436357300000    -0.173707500000    -0.338518700000     1.459615374363     2.897993435018     3.748000204024
5
Properties=species:S:1:pos:R:3:forces:R:3 energy=-1100.782593136712 pbc="F F F"
H      0.131558400000    -1.214676600000    -0.353708900000    -0.627606328839     2.464402565311     1.318718910535
H     -0.821030200000     0.430586600000     0.611679500000     0.790460015315    -2.380018953216    -0.602460938032
H      0.204107700000     0.657485000000    -0.656442900000    -0.149483949032    -0.432408162164    -1.553717757139
H     -1.358573300000    -0.506476800000    -0.827877800000     0.249808401926     1.211761010987    -0.755493009693
C     -0.436056600000    -0.165294900000    -0.328338400000    -0.263383827637    -0.863839305053     1.592592839859
5
Properties=species:S:1:pos:R:3:forces:R:3 energy=-1100.525372340153 pbc="F F F"
H      0.151026900000    -1.275727100000    -0.354527200000    -1.083411531529     3.480811143422     1.206567382211
H     -0.757242300000     0.411630800000     0.550069600000    -0.362474150921    -1.473602176612     1.453547570447
H      0.155461100000     0.662125300000    -0.660068900000     0.715332375296     0.058209779946    -2.028600546719
H     -1.398473300000    -0.521476800000    -0.906614400000     1.839881560497     1.692557338283     0.671366507933
C     -0.435965700000    -0.157811600000    -0.316350900000    -1.109533941611    -3.758078929174    -1.302983758006
5
Properties=species:S:1:pos:R:3:forces:R:3 energy=-1100.238886786380 pbc="F F F"
H      0.155708800000    -1.288882300000    -0.338555000000    -1.190112320742     3.733036382501     1.001599022788
H     -0.698650200000     0.373079500000     0.509861100000    -1.565441988436     0.208722170320     4.238412457866
H      0.116188300000     0.667063100000    -0.691562700000     1.048855902445     0.121407500401    -2.039347758741
H     -1.413883600000    -0.513306500000    -0.976536300000     2.329471061266     1.715183047803     1.598660643776
C     -0.437040900000    -0.154676200000    -0.305971100000    -0.623235453137    -5.778554789293    -4.799632898091
5
Properties=species:S:1:pos:R:3:forces:R:3 energy=-1100.470455953562 pbc="F F F"
H      0.144040000000    -1.250499700000    -0.308676200000    -1.007409716370     3.316106262531     0.694712126392
H     -0.660777300000     0.336195100000     0.526405500000    -1.794578719391     0.860959669296     4.822772828282
H      0.090867200000     0.672966400000    -0.750738100000     0.779095738488    -0.407519881692    -1.324992402720
H     -1.397417700000    -0.481477200000    -1.024544800000     2.154687455225     1.420791713710     2.106762088697
C     -0.438851800000    -0.158077700000    -0.301041400000    -0.131691913819    -5.190389185912    -6.299254640651
5
Properties=species:S:1:pos:R:3:forces:R:3 energy=-1101.149917731857 pbc="F F F"
H      0.118896100000    -1.166983000000    -0.269154400000    -0.257933088526     1.746036288057     0.325655950884
H     -0.646847100000     0.309248600000     0.605945400000    -1.067316424530    -0.119864838388     1.849188954641
H      0.076309100000     0.673054400000    -0.827931100000     0.371987233333    -1.035743275336    -0.157968590102
H     -1.351400700000    -0.430061600000    -1.043586400000     1.424185570138     0.855766040520     2.140340698507
C     -0.440906000000    -0.167261300000    -0.303132000000    -0.470769024213    -1.446554169322    -4.157319858064
5
Properties=species:S:1:pos:R:3:forces:R:3 energy=-1101.282420582851 pbc="F F F"
H      0.091439700000    -1.061258700000    -0.224859500000     1.565287722234    -1.656767579588     0.151643675850
H     -0.648051600000     0.281131200000     0.711389900000    -0.435802018592    -0.800744428733    -1.300155544316
H      0.067256000000     0.659102000000    -0.907423300000     0.200957438190    -1.285397411061     0.946834521337
H     -1.286309100000    -0.366971800000    -1.033490900000    -0.063866207326     0.027665072095     1.443366001163
C     -0.443558800000    -0.178013200000    -0.310053100000    -1.266319824170     3.715192925220    -1.241534387833
5
Properties=species:S:1:pos:R:3:forces:R:3 energy=-1100.679940904073 pbc="F F F"
H      0.086373000000    -0.979066500000    -0.177892700000     3.562777918364    -5.040750970679     0.357846164883
H     -0.655775900000     0.242731900000     0.800460700000    -0.148815462160    -0.708647506574    -2.964019369162
H      0.061336600000     0.627713400000    -0.974117100000     0.297785190521    -1.055540771166     1.666280662000
H     -1.223243300000    -0.303667800000    -1.004371800000    -2.465328162519    -0.931819277747    -0.224148790447
C     -0.447637100000    -0.184479200000    -0.318496000000    -1.246316640072     7.736449993763     1.164195598928
5
Properties=species:S:1:pos:R:3:forces:R:3 energy=-1100.362652605549 pbc="F F F"
H      0.127293700000    -0.961597800000    -0.126703500000     2.554031228250    -3.949111908415    -0.046794081052
H     -0.665772900000     0.194811300000     0.849268500000    -0.029156312040    -0.256081894111    -3.540049364710
H      0.059748200000     0.581963200000    -1.018022500000     0.534840919808    -0.467118057450     1.919842874823
H     -1.194513300000    -0.253097400000    -0.978491200000    -4.568593550654    -1.626685670340    -1.854793959954
C     -0.452866800000    -0.182434600000    -0.325553800000     1.508826292569     6.298843264114     3.521948797094
5
Properties=species:S:1:pos:R:3:forces:R:3 energy=-1100.566367381654 pbc="F F F"
H      0.201956500000    -0.997195500000    -0.076991300000    -0.171389749613    -0.859365585216    -1.090816309190
H     -0.676211400000     0.143393300000     0.849241400000     0.053376105640     0.284466875145    -3.447283955679
H      0.065665800000     0.529836200000    -1.035529900000     0.787940334027     0.267086216468     1.752309780242
H     -1.226184700000    -0.224694100000    -0.975752100000    -3.822047980634    -1.815456078629    -1.275061575576
C     -0.456451000000    -0.173242400000    -0.328659600000     3.152018446445     2.123217150166     4.061109170538
5
Properties=species:S:1:pos:R:3:forces:R:3 energy=-1100.741878100373 pbc="F F F"
H      0.275635100000    -1.046651700000    -0.041952000000    -1.853199875874     0.867901648353    -1.690911832136
H     -0.685962200000     0.095980700000     0.801805600000     0.074613419348     0.850726677945    -2.575834184696
H      0.082527600000     0.481403000000    -1.028890100000     0.963700959343     0.962723940068     1.251818801251
H     -1.308871300000    -0.221272400000    -0.989352700000    -0.999439295971    -1.618612405807     0.570836366771
C     -0.456645000000    -0.161434900000    -0.327206900000     1.814427637288    -1.062637016425     2.444296537079
5
Properties=species:S:1:pos:R:3:forces:R:3 energy=-1100.638982325829 pbc="F F F"
H      0.324559200000    -1.085228000000    -0.029980700000    -2.505797329319     1.487074758190    -1.769896127187
H     -0.694972500000     0.060587200000     0.719901800000    -0.172521035089     1.507077942288    -0.325861639152
H      0.112691700000     0.446223400000    -1.004868900000     0.968637477783     1.458432666820     0.633057067951
H     -1.406256400000    -0.240252100000    -0.996030000000     1.357748259457    -1.195511637787     1.625605806931
C     -0.454704900000    -0.150782100000    -0.322963200000     0.351778360966    -3.257022307444    -0.162596576140
5
Properties=species:S:1:pos:R:3:forces:R:3 energy=-1100.348482548391 pbc="F F F"
H      0.338923400000    -1.103474000000    -0.042478600000    -2.677701299603     1.652499548020    -1.566470429777
H     -0.706969400000     0.046424300000     0.635246900000    -0.860496870692     2.242413501682     3.284533113337
H      0.156062900000     0.431035400000    -0.971707100000     0.669463891451     1.589198983431     0.237569949958
H     -1.485866600000    -0.275906800000    -0.981000200000     2.675644416919    -0.710910077526     1.779203521331
C     -0.452213700000    -0.143898200000    -0.319024000000     0.192369952985    -4.773407643875    -3.733961979708
5
Properties=species:S:1:pos:R:3:forces:R:3 energy=-1100.347440352306 pbc="F F F"
H      0.316106400000    -1.098864800000    -0.076727100000    -2.555831000598     1.549655413839    -1.194380352311
H     -0.730664600000     0.063144500000     0.594344900000    -1.196334390860     2.502249206690     4.935232889009
H      0.208404200000     0.437652300000    -0.934821400000     0.033424343609     1.339596269774     0.165733322233
H     -1.528850600000    -0.321548900000    -0.941603400000     3.248897620844    -0.252019550810     1.447376922396
C     -0.449447100000    -0.142520100000    -0.319291600000     0.469894849073    -5.139481339492    -5.353859937192
5
Properties=species:S:1:pos:R:3:forces:R:3 energy=-1100.906517598261 pbc="F F F"
H      0.258051100000    -1.073119900000    -0.127481700000    -1.938560507244     0.936292997583    -0.628120549510
H     -0.769375600000     0.113459600000     0.617046200000    -0.205276891825     1.615835614184     2.327414178582
H      0.261033100000     0.462754700000    -0.895487100000    -0.757138515840     0.851035210347     0.208876436522
H     -1.527017200000    -0.370767900000    -0.882267100000     3.213056440082     0.164807725025     0.821981742441
C     -0.446248000000    -0.146990700000    -0.325394700000    -0.312131947239    -3.568022969207    -2.730408918370
5
Properties=species:S:1:pos:R:3:forces:R:3 energy=-1101.258874026296 pbc="F F F"
H      0.173977200000    -1.035558600000    -0.186711900000    -0.363656858464    -0.786963314753     0.201060282324
H     -0.810764000000     0.185838600000     0.672156000000     1.008489579779     0.231707834310    -0.669926690055
H      0.303168200000     0.499660900000    -0.853311500000    -1.456890004807     0.261275522887     0.184965175324
H     -1.481168600000    -0.417761100000    -0.811758600000     2.307513838618     0.500850933461    -0.103564043120
C     -0.443454200000    -0.155485000000    -0.334684700000    -1.495507977192    -0.206768131771     0.387619541728
5
Properties=species:S:1:pos:R:3:forces:R:3 energy=-1100.932022014040 pbc="F F F"
H      0.085865900000    -1.010468200000    -0.243031500000     1.982372108405    -3.562315119760     1.080634739906
H     -0.838808800000     0.261821800000     0.719858500000     1.600511838191    -0.880705743059    -2.080948211018
H      0.325227800000     0.540228200000    -0.808705800000    -1.878602377017    -0.323341957865     0.024116949465
H     -1.404701900000    -0.458063900000    -0.743177600000    -0.034864161487     0.549393364795    -1.428042225170
C     -0.442327700000    -0.164104000000    -0.343639000000    -1.669725940495     4.216866611755     2.404444435084
