5

H       -0.1009584000      -0.4195501000      -1.3120554000
H       -0.3338229000      -1.6422771000      -0.0808901000
H        0.2789862000       0.0118352000       0.3788960000
H       -1.4132049000      -0.1404619000      -0.0307429000
C       -0.4172443000      -0.5543981000      -0.2861651000
5

H       -0.0983485000      -0.4275927000      -1.2998746000
H       -0.3327973000      -1.6432924000      -0.0944585000
H        0.2937201000       0.0046060000       0.3605705000
H       -1.4215345000      -0.1528384000      -0.0432130000
C       -0.4184532000      -0.5524998000      -0.2837739000
5

H       -0.0986013000      -0.4292164000      -1.2989692000
H       -0.3353293000      -1.6371805000      -0.1039079000
H        0.3063410000      -0.0082746000       0.3396798000
H       -1.4264774000      -0.1702537000      -0.0624361000
C       -0.4192298000      -0.5508420000      -0.2799995000
5

H       -0.1021955000      -0.4247181000      -1.3089187000
H       -0.3408871000      -1.6269855000      -0.1082611000
H        0.3179661000      -0.0234245000       0.3207174000
H       -1.4296124000      -0.1900152000      -0.0859365000
C       -0.4195400000      -0.5496542000      -0.2755446000
5

H       -0.1103508000      -0.4155991000      -1.3243112000
H       -0.3485299000      -1.6175587000      -0.1070986000
H        0.3302937000      -0.0368801000       0.3081026000
H       -1.4336379000      -0.2088469000      -0.1106675000
C       -0.4192766000      -0.5490106000      -0.2715257000
5

H       -0.1239059000      -0.4040203000      -1.3381367000
H       -0.3571538000      -1.6134870000      -0.1007157000
H        0.3438532000      -0.0456758000       0.3044808000
H       -1.4405626000      -0.2238239000      -0.1336220000
C       -0.4183376000      -0.5488390000      -0.2689813000
5

H       -0.1424552000      -0.3922002000      -1.3450888000
H       -0.3657665000      -1.6167267000      -0.0901790000
H        0.3567440000      -0.0489512000       0.3097160000
H       -1.4501241000      -0.2331612000      -0.1522573000
C       -0.4167029000      -0.5490111000      -0.2684698000
5

H       -0.1641751000      -0.3819295000      -1.3433446000
H       -0.3736368000      -1.6254581000      -0.0772406000
H        0.3650660000      -0.0478344000       0.3212578000
H       -1.4596183000      -0.2364522000      -0.1646243000
C       -0.4144863000      -0.5494685000      -0.2699465000
5

H       -0.1861407000      -0.3742514000      -1.3350206000
H       -0.3802779000      -1.6351347000      -0.0640505000
H        0.3647611000      -0.0443631000       0.3354954000
H       -1.4652719000      -0.2343500000      -0.1693639000
C       -0.4119505000      -0.5502799000      -0.2728639000
5

H       -0.2049456000      -0.3693544000      -1.3254672000
H       -0.3853616000      -1.6409239000      -0.0527002000
H        0.3534969000      -0.0403183000       0.3491663000
H       -1.4640891000      -0.2280192000      -0.1657585000
C       -0.4094647000      -0.5515876000      -0.2763833000
5

H       -0.2175564000      -0.3667829000      -1.3210376000
H       -0.3886694000      -1.6399432000      -0.0447451000
H        0.3317103000      -0.0365016000       0.3602894000
H       -1.4551319000      -0.2186749000      -0.1538469000
C       -0.4074174000      -0.5535025000      -0.2796710000
5

H       -0.2221970000      -0.3659760000      -1.3256048000
H       -0.3900854000      -1.6324369000      -0.0408422000
H        0.3027170000      -0.0325167000       0.3685482000
H       -1.4399096000      -0.2073232000      -0.1345171000
C       -0.4061192000      -0.5560000000      -0.2822453000
5

H       -0.2188385000      -0.3667589000      -1.3379785000
H       -0.3895922000      -1.6217910000      -0.0406206000
H        0.2719636000      -0.0270594000       0.3750635000
H       -1.4219408000      -0.1947176000      -0.1094962000
C       -0.4057361000      -0.5588565000      -0.2841862000
5

H       -0.2090066000      -0.3693306000      -1.3525722000
H       -0.3872585000      -1.6133162000      -0.0428757000
H        0.2454520000      -0.0187839000       0.3814271000
H       -1.4055803000      -0.1815424000      -0.0812279000
C       -0.4062725000      -0.5616650000      -0.2859924000
5

H       -0.1950945000      -0.3738229000      -1.3626962000
H       -0.3832301000      -1.6117787000      -0.0461308000
H        0.2277695000      -0.0075149000       0.3882642000
H       -1.3943934000      -0.1687587000      -0.0526746000
C       -0.4076011000      -0.5639483000      -0.2881538000
5

H       -0.1796022000      -0.3799054000      -1.3638154000
H       -0.3777533000      -1.6186392000      -0.0493451000
H        0.2207661000       0.0049926000       0.3943098000
H       -1.3898275000      -0.1578624000      -0.0270654000
C       -0.4095251000      -0.5653386000      -0.2907614000
5

H       -0.1645494000      -0.3866778000      -1.3552646000
H       -0.3712271000      -1.6309852000      -0.0522855000
H        0.2236274000       0.0154787000       0.3968508000
H       -1.3909893000      -0.1507454000      -0.0075400000
C       -0.4118479000      -0.5657235000      -0.2933988000
5

H       -0.1511412000      -0.3928119000      -1.3404074000
H       -0.3642084000      -1.6431596000      -0.0553172000
H        0.2339774000       0.0205261000       0.3931817000
H       -1.3955835000      -0.1491348000       0.0033350000
C       -0.4144144000      -0.5652576000      -0.2953103000
5

H       -0.1397796000      -0.3968910000      -1.3253477000
H       -0.3573339000      -1.6497354000      -0.0588860000
H        0.2491175000       0.0179120000       0.3820024000
H       -1.4012974000      -0.1539261000       0.0040834000
C       -0.4171055000      -0.5642537000      -0.2957126000
5

H       -0.1305454000      -0.3979157000      -1.3161874000
H       -0.3511808000      -1.6478880000      -0.0631250000
H        0.2669017000       0.0073747000       0.3641177000
H       -1.4068989000      -0.1647480000      -0.0053299000
C       -0.4197891000      -0.5630422000      -0.2941469000
5

H       -0.1239577000      -0.3957880000      -1.3158528000
H       -0.3461455000      -1.6384223000      -0.0677239000
H        0.2861563000      -0.0092695000       0.3423650000
H       -1.4126781000      -0.1799270000      -0.0234481000
C       -0.4222653000      -0.5618568000      -0.2907540000
5

H       -0.1213219000      -0.3914446000      -1.3227061000
H       -0.3423854000      -1.6255304000      -0.0720266000
H        0.3065906000      -0.0286248000       0.3208582000
H       -1.4200709000      -0.1968757000      -0.0476448000
C       -0.4242664000      -0.5607691000      -0.2862920000
5

H       -0.1242122000      -0.3864936000      -1.3320460000
H       -0.3398636000      -1.6152556000      -0.0753264000
H        0.3280979000      -0.0467841000       0.3036988000
H       -1.4304837000      -0.2128295000      -0.0747410000
C       -0.4255362000      -0.5596969000      -0.2818269000
5

H       -0.1335463000      -0.3825988000      -1.3389793000
H       -0.3385192000      -1.6127201000      -0.0772650000
H        0.3496739000      -0.0606349000       0.2936065000
H       -1.4438552000      -0.2256641000      -0.1016286000
C       -0.4259236000      -0.5585097000      -0.2782893000
5

H       -0.1489611000      -0.3809645000      -1.3406374000
H       -0.3384712000      -1.6192952000      -0.0781377000
H        0.3687433000      -0.0687277000       0.2911816000
H       -1.4579872000      -0.2343565000      -0.1256101000
C       -0.4254171000      -0.5571990000      -0.2761723000
5

H       -0.1687222000      -0.3820558000      -1.3371084000
H       -0.3400488000      -1.6318025000      -0.0788254000
H        0.3816075000      -0.0712475000       0.2951622000
H       -1.4692761000      -0.2388758000      -0.1444291000
C       -0.4241271000      -0.5559796000      -0.2754779000
5

H       -0.1900556000      -0.3855633000      -1.3312715000
H       -0.3435839000      -1.6444512000      -0.0803468000
H        0.3847976000      -0.0693117000       0.3033382000
H       -1.4743319000      -0.2397228000      -0.1562348000
C       -0.4222519000      -0.5552282000      -0.2758486000
5

H       -0.2097945000      -0.3905889000      -1.3275750000
H       -0.3491522000      -1.6518650000      -0.0833411000
H        0.3764664000      -0.0641559000       0.3135143000
H       -1.4714391000      -0.2374711000      -0.1596638000
C       -0.4200397000      -0.5553194000      -0.2767875000
5

H       -0.2252007000      -0.3960137000      -1.3298025000
H       -0.3564454000      -1.6513273000      -0.0877526000
H        0.3571899000      -0.0565831000       0.3241793000
H       -1.4612365000      -0.2325062000      -0.1540220000
C       -0.4177412000      -0.5564757000      -0.2779128000
5

H       -0.2346439000      -0.4008896000      -1.3387741000
H       -0.3647897000      -1.6437053000      -0.0927657000
H        0.3299943000      -0.0467834000       0.3347825000
H       -1.4465011000      -0.2249993000      -0.1394829000
C       -0.4155705000      -0.5586736000      -0.2791631000
5

H       -0.2378208000      -0.4046167000      -1.3516509000
H       -0.3732697000      -1.6331609000      -0.0969534000
H        0.2996057000      -0.0345707000       0.3455335000
H       -1.4311371000      -0.2151136000      -0.1172156000
C       -0.4136992000      -0.5616159000      -0.2808162000
5

H       -0.2354843000      -0.4068584000      -1.3634690000
H       -0.3809173000      -1.6255479000      -0.0986441000
H        0.2710598000      -0.0200189000       0.3567033000
H       -1.4186313000      -0.2033940000      -0.0894092000
C       -0.4122758000      -0.5647874000      -0.2832685000
5

H       -0.2289602000      -0.4073750000      -1.3696673000
H       -0.3869033000      -1.6255211000      -0.0965047000
H        0.2482321000      -0.0042054000       0.3677552000
H       -1.4106696000      -0.1911130000      -0.0591566000
C       -0.4114422000      -0.5676199000      -0.2867103000
5

H       -0.2196868000      -0.4059222000      -1.3680638000
H       -0.3906545000      -1.6336891000      -0.0901416000
H        0.2330766000       0.0105388000       0.3769753000
H       -1.4067546000      -0.1802530000      -0.0301441000
C       -0.4113318000      -0.5697209000      -0.2909046000
5

H       -0.2088775000      -0.4022410000      -1.3596652000
H       -0.3918557000      -1.6460661000      -0.0803523000
H        0.2258720000       0.0212002000       0.3819952000
H       -1.4050253000      -0.1729993000      -0.0060995000
C       -0.4120486000      -0.5710101000      -0.2951878000
5

H       -0.1973641000      -0.3961308000      -1.3482455000
H       -0.3903981000      -1.6563999000      -0.0688368000
H        0.2260037000       0.0251446000       0.3808491000
H       -1.4036132000      -0.1710100000       0.0098873000
C       -0.4136373000      -0.5716688000      -0.2986755000
5

H       -0.1857036000      -0.3876407000      -1.3386619000
H       -0.3863412000      -1.6594322000      -0.0575893000
H        0.2326699000       0.0210446000       0.3728861000
H       -1.4017410000      -0.1748289000       0.0159708000
C       -0.4160440000      -0.5719776000      -0.3005825000
5

H       -0.1745516000      -0.3773691000      -1.3343688000
H       -0.3798914000      -1.6531436000      -0.0483075000
H        0.2452392000       0.0093205000       0.3591397000
H       -1.4002196000      -0.1836431000       0.0119014000
C       -0.4190752000      -0.5721590000      -0.3005419000
5

H       -0.1650302000      -0.3666775000      -1.3355957000
H       -0.3713791000      -1.6395343000      -0.0420089000
H        0.2632314000      -0.0079736000       0.3420748000
H       -1.4012333000      -0.1954473000      -0.0009936000
C       -0.4223854000      -0.5722719000      -0.2987672000
5

H       -0.1586707000      -0.3575347000      -1.3396071000
H       -0.3612355000      -1.6240609000      -0.0389343000
H        0.2859412000      -0.0277652000       0.3248023000
H       -1.4073237000      -0.2076416000      -0.0202509000
C       -0.4255367000      -0.5721691000      -0.2959366000
5

H       -0.1568878000      -0.3519775000      -1.3427141000
H       -0.3500245000      -1.6135735000      -0.0388015000
H        0.3118443000      -0.0468971000       0.3100499000
H       -1.4197411000      -0.2179440000      -0.0430132000
C       -0.4281305000      -0.5715611000      -0.2928524000
5

H       -0.1603805000      -0.3514852000      -1.3424017000
H       -0.3385654000      -1.6129821000      -0.0413899000
H        0.3381830000      -0.0629740000       0.2993822000
H       -1.4370678000      -0.2251847000      -0.0666821000
C       -0.4299265000      -0.5702105000      -0.2900941000
5

H       -0.1688167000      -0.3565681000      -1.3384740000
H       -0.3280822000      -1.6224217000      -0.0470140000
H        0.3611955000      -0.0747113000       0.2930611000
H       -1.4552816000      -0.2294679000      -0.0891216000
C       -0.4308719000      -0.5681623000      -0.2878527000
5

H       -0.1808764000      -0.3666832000      -1.3330717000
H       -0.3201208000      -1.6372612000      -0.0563655000
H        0.3770305000      -0.0817365000       0.2904830000
H       -1.4693964000      -0.2316723000      -0.1085090000
C       -0.4310431000      -0.5658082000      -0.2859922000
5

H       -0.1946115000      -0.3804628000      -1.3296866000
H       -0.3161566000      -1.6509091000      -0.0698163000
H        0.3828930000      -0.0841233000       0.2908022000
H       -1.4755653000      -0.2327341000      -0.1231896000
C       -0.4305680000      -0.5637317000      -0.2842563000
5

H       -0.2080057000      -0.3961316000      -1.3313833000
H       -0.3171399000      -1.6580606000      -0.0868075000
H        0.3779028000      -0.0819812000       0.2934186000
H       -1.4725249000      -0.2331317000      -0.1317101000
C       -0.4295683000      -0.5624777000      -0.2825064000
5

H       -0.2195258000      -0.4118952000      -1.3389757000
H       -0.3232132000      -1.6566760000      -0.1056990000
H        0.3633844000      -0.0752591000       0.2982105000
H       -1.4620159000      -0.2327006000      -0.1329924000
C       -0.4281260000      -0.5623868000      -0.2808919000
5

H       -0.2283734000      -0.4261115000      -1.3503785000
H       -0.3336670000      -1.6485586000      -0.1239891000
H        0.3424879000      -0.0638442000       0.3054370000
H       -1.4481588000      -0.2307669000      -0.1265625000
C       -0.4262857000      -0.5635115000      -0.2798598000
5

H       -0.2343817000      -0.4372862000      -1.3616610000
H       -0.3471069000      -1.6387342000      -0.1387657000
H        0.3191546000      -0.0479837000       0.3152987000
H       -1.4358139000      -0.2266016000      -0.1127697000
C       -0.4241016000      -0.5655960000      -0.2799726000
5

H       -0.2377378000      -0.4440855000      -1.3689858000
H       -0.3618031000      -1.6334294000      -0.1473088000
H        0.2968043000      -0.0288704000       0.3272994000
H       -1.4283748000      -0.2200791000      -0.0929541000
C       -0.4217053000      -0.5681396000      -0.2816269000
5

H       -0.2387307000      -0.4454683000      -1.3702453000
H       -0.3761072000      -1.6368089000      -0.1477482000
H        0.2774507000      -0.0089498000       0.3398617000
H       -1.4262166000      -0.2121510000      -0.0694766000
C       -0.4193488000      -0.5705946000      -0.2848262000
5

H       -0.2375951000      -0.4408590000      -1.3658285000
H       -0.3886997000      -1.6482335000      -0.1395976000
H        0.2617540000       0.0084547000       0.3506037000
H       -1.4269377000      -0.2047025000      -0.0454705000
C       -0.4173804000      -0.5726257000      -0.2891155000
5

H       -0.2344620000      -0.4302737000      -1.3584310000
H       -0.3985638000      -1.6624111000      -0.1239274000
H        0.2497590000       0.0200955000       0.3571860000
H       -1.4271188000      -0.1998298000      -0.0242773000
C       -0.4161653000      -0.5742274000      -0.2937014000
5

H       -0.2294453000      -0.4143861000      -1.3518619000
H       -0.4048737000      -1.6723936000      -0.1030868000
H        0.2416617000       0.0238082000       0.3582152000
H       -1.4242676000      -0.1990145000      -0.0087392000
C       -0.4159889000      -0.5756204000      -0.2977112000
5

H       -0.2228591000      -0.3945928000      -1.3490695000
H       -0.4069892000      -1.6729973000      -0.0800854000
H        0.2381995000       0.0191222000       0.3537746000
H       -1.4179947000      -0.2025748000      -0.0006119000
C       -0.4169732000      -0.5770563000      -0.3005037000
5

H       -0.2154344000      -0.3730666000      -1.3504336000
H       -0.4045346000      -1.6628870000      -0.0578877000
H        0.2405682000       0.0073282000       0.3454066000
H       -1.4102586000      -0.2095120000      -0.0002436000
C       -0.4190241000      -0.5786569000      -0.3018984000
5

H       -0.2083008000      -0.3526208000      -1.3536468000
H       -0.3974739000      -1.6451512000      -0.0388184000
H        0.2498852000      -0.0089961000       0.3355257000
H       -1.4047345000      -0.2177606000      -0.0066075000
C       -0.4218353000      -0.5803166000      -0.3021826000
5

H       -0.2026626000      -0.3362504000      -1.3553113000
H       -0.3861405000      -1.6264568000      -0.0242397000
H        0.2663288000      -0.0268752000       0.3264321000
H       -1.4052831000      -0.2248733000      -0.0177474000
C       -0.4249684000      -0.5816796000      -0.3018850000
5

H       -0.1993631000      -0.3264699000      -1.3529991000
H       -0.3712562000      -1.6145041000      -0.0147113000
H        0.2883579000      -0.0438676000       0.3193900000
H       -1.4138533000      -0.2290143000      -0.0315156000
C       -0.4279989000      -0.5822473000      -0.3014491000
5

H       -0.1985910000      -0.3247314000      -1.3465768000
H       -0.3540095000      -1.6141831000      -0.0106812000
H        0.3126103000      -0.0585459000       0.3143303000
H       -1.4290122000      -0.2297476000      -0.0461922000
C       -0.4306490000      -0.5816436000      -0.3009872000
5

H       -0.1998429000      -0.3311515000      -1.3384019000
H       -0.3361757000      -1.6247775000      -0.0130987000
H        0.3347197000      -0.0703501000       0.3103079000
H       -1.4463176000      -0.2280638000      -0.0606127000
C       -0.4328183000      -0.5798824000      -0.3002395000
5

H       -0.2021616000      -0.3446523000      -1.3323847000
H       -0.3200224000      -1.6406542000      -0.0231578000
H        0.3506353000      -0.0790993000       0.3062976000
H       -1.4603639000      -0.2256681000      -0.0739104000
C       -0.4345106000      -0.5773996000      -0.2987644000
5

H       -0.2045931000      -0.3634546000      -1.3320634000
H       -0.3078752000      -1.6546986000      -0.0413360000
H        0.3578087000      -0.0845250000       0.3018498000
H       -1.4670795000      -0.2241031000      -0.0852312000
C       -0.4357386000      -0.5748349000      -0.2962584000
5

H       -0.2066778000      -0.3856103000      -1.3385079000
H       -0.3015522000      -1.6616522000      -0.0666377000
H        0.3558658000      -0.0860268000       0.2973936000
H       -1.4651966000      -0.2241450000      -0.0936486000
C       -0.4364633000      -0.5727788000      -0.2928291000
5

H       -0.2086314000      -0.4091810000      -1.3495017000
H       -0.3019501000      -1.6598738000      -0.0964892000
H        0.3466290000      -0.0827074000       0.2941593000
H       -1.4566291000      -0.2255986000      -0.0982462000
C       -0.4365835000      -0.5716234000      -0.2890589000
5

H       -0.2110857000      -0.4320761000      -1.3607245000
H       -0.3088712000      -1.6516887000      -0.1271369000
H        0.3334090000      -0.0737455000       0.2937054000
H       -1.4457574000      -0.2274797000      -0.0983177000
C       -0.4359728000      -0.5715007000      -0.2858160000
5

H       -0.2146189000      -0.4519329000      -1.3679998000
H       -0.3211158000      -1.6425605000      -0.1543240000
H        0.3196486000      -0.0590837000       0.2971092000
H       -1.4375911000      -0.2285757000      -0.0936418000
C       -0.4345520000      -0.5722568000      -0.2839178000
5

H       -0.2194038000      -0.4663015000      -1.3691344000
H       -0.3368622000      -1.6388485000      -0.1741049000
H        0.3075073000      -0.0401196000       0.3041826000
H       -1.4353190000      -0.2282222000      -0.0847485000
C       -0.4323727000      -0.5735021000      -0.2838199000
5

H       -0.2250971000      -0.4730562000      -1.3646819000
H       -0.3542047000      -1.6444133000      -0.1836113000
H        0.2972917000      -0.0198259000       0.3132804000
H       -1.4386858000      -0.2268189000      -0.0730161000
C       -0.4296713000      -0.5748075000      -0.2854628000
5

H       -0.2309193000      -0.4708397000      -1.3576510000
H       -0.3715010000      -1.6580412000      -0.1815720000
H        0.2880644000      -0.0020162000       0.3219344000
H       -1.4444292000      -0.2256495000      -0.0604464000
C       -0.4268465000      -0.5759610000      -0.2883253000
5

H       -0.2359243000      -0.4593860000      -1.3522275000
H       -0.3873419000      -1.6739368000      -0.1684913000
H        0.2788207000       0.0098701000       0.3279078000
H       -1.4483506000      -0.2261513000      -0.0491580000
C       -0.4243642000      -0.5770624000      -0.2916475000
5

H       -0.2393839000      -0.4396767000      -1.3516877000
H       -0.4003937000      -1.6848952000      -0.1464692000
H        0.2694210000       0.0138108000       0.3300697000
H       -1.4474739000      -0.2291682000      -0.0408406000
C       -0.4226359000      -0.5783936000      -0.2947413000
5

H       -0.2411156000      -0.4139348000      -1.3564394000
H       -0.4093977000      -1.6856750000      -0.1186945000
H        0.2609435000       0.0096949000       0.3287713000
H       -1.4412846000      -0.2345375000      -0.0363659000
C       -0.4219163000      -0.5802126000      -0.2972608000
5

H       -0.2415040000      -0.3854262000      -1.3636517000
H       -0.4133322000      -1.6750068000      -0.0887440000
H        0.2554223000      -0.0007859000       0.3256557000
H       -1.4319112000      -0.2410466000      -0.0356469000
C       -0.4222511000      -0.5825952000      -0.2992888000
5

H       -0.2411929000      -0.3579886000      -1.3689026000
H       -0.4115923000      -1.6561395000      -0.0598753000
H        0.2550437000      -0.0148180000       0.3229197000
H       -1.4233207000      -0.2467492000      -0.0377595000
C       -0.4234873000      -0.5853461000      -0.3011851000
5

H       -0.2406712000      -0.3353254000      -1.3685950000
H       -0.4041120000      -1.6359515000      -0.0345174000
H        0.2610065000      -0.0295232000       0.3222371000
H       -1.4196004000      -0.2496355000      -0.0413433000
C       -0.4253470000      -0.5879871000      -0.3033024000
5

H       -0.2399888000      -0.3202812000      -1.3617181000
H       -0.3913998000      -1.6223062000      -0.0142470000
H        0.2726156000      -0.0429068000       0.3238826000
H       -1.4228541000      -0.2485053000      -0.0451664000
C       -0.4275480000      -0.5898876000      -0.3057199000
5

H       -0.2386837000      -0.3143090000      -1.3504470000
H       -0.3745542000      -1.6201552000      -0.0003801000
H        0.2872626000      -0.0541699000       0.3266421000
H       -1.4319492000      -0.2435712000      -0.0485590000
C       -0.4299131000      -0.5905584000      -0.3080985000
5

H       -0.2359230000      -0.3173269000      -1.3395160000
H       -0.3552963000      -1.6288598000       0.0053855000
H        0.3013660000      -0.0633308000       0.3285358000
H       -1.4430883000      -0.2363708000      -0.0514505000
C       -0.4323858000      -0.5899295000      -0.3097378000
5

H       -0.2308984000      -0.3281169000      -1.3342513000
H       -0.3358922000      -1.6430282000       0.0011897000
H        0.3116831000      -0.0705861000       0.3278225000
H       -1.4517732000      -0.2290471000      -0.0540862000
C       -0.4349492000      -0.5883595000      -0.3098674000
5

H       -0.2234101000      -0.3451125000      -1.3376794000
H       -0.3188149000      -1.6559124000      -0.0139752000
H        0.3163596000      -0.0758142000       0.3237536000
H       -1.4548420000      -0.2234962000      -0.0566895000
C       -0.4375222000      -0.5863976000      -0.3080668000
5

H       -0.2143103000      -0.3669408000      -1.3484763000
H       -0.3062474000      -1.6625819000      -0.0394026000
H        0.3154338000      -0.0783657000       0.3168766000
H       -1.4516969000      -0.2207769000      -0.0592433000
C       -0.4399033000      -0.5845389000      -0.3045540000
5

H       -0.2053847000      -0.3922300000      -1.3616019000
H       -0.2996517000      -1.6615340000      -0.0724918000
H        0.3107231000      -0.0771752000       0.3088621000
H       -1.4445182000      -0.2209040000      -0.0614409000
C       -0.4417894000      -0.5831128000      -0.3001366000
5

H       -0.1986916000      -0.4190564000      -1.3711525000
H       -0.2995115000      -1.6549434000      -0.1091471000
H        0.3050465000      -0.0712282000       0.3018702000
H       -1.4374208000      -0.2230488000      -0.0628235000
C       -0.4428579000      -0.5822532000      -0.2958743000
5

H       -0.1958205000      -0.4447168000      -1.3732239000
H       -0.3053206000      -1.6477767000      -0.1445228000
H        0.3009296000      -0.0602999000       0.2976098000
H       -1.4346005000      -0.2261269000      -0.0630817000
C       -0.4428778000      -0.5818798000      -0.2926715000
5

H       -0.1974220000      -0.4660165000      -1.3674148000
H       -0.3158694000      -1.6456319000      -0.1739262000
H        0.2993992000      -0.0455901000       0.2965475000
H       -1.4381302000      -0.2295264000      -0.0623845000
C       -0.4418082000      -0.5817415000      -0.2909813000
5

H       -0.2030843000      -0.4798631000      -1.3569041000
H       -0.3297238000      -1.6517255000      -0.1936508000
H        0.2996565000      -0.0297258000       0.2977967000
H       -1.4467945000      -0.2334737000      -0.0614679000
C       -0.4398391000      -0.5815884000      -0.2907116000
5

H       -0.2115528000      -0.4839334000      -1.3472560000
H       -0.3455549000      -1.6647991000      -0.2015157000
H        0.2998274000      -0.0159914000       0.2997543000
H       -1.4568641000      -0.2387302000      -0.0613454000
C       -0.4373431000      -0.5813813000      -0.2913587000
5

H       -0.2212769000      -0.4772399000      -1.3439598000
H       -0.3620966000      -1.6797001000      -0.1970633000
H        0.2981579000      -0.0072114000       0.3010188000
H       -1.4641438000      -0.2459097000      -0.0628171000
C       -0.4347615000      -0.5813476000      -0.2923149000
5

H       -0.2310814000      -0.4604496000      -1.3494083000
H       -0.3779611000      -1.6901178000      -0.1814880000
H        0.2939338000      -0.0048674000       0.3010741000
H       -1.4659058000      -0.2549129000      -0.0660832000
C       -0.4324786000      -0.5818450000      -0.2932187000
5

H       -0.2404972000      -0.4358740000      -1.3612892000
H       -0.3916096000      -1.6914673000      -0.1572982000
H        0.2878147000      -0.0087472000       0.3005100000
H       -1.4619082000      -0.2647308000      -0.0706123000
C       -0.4307389000      -0.5831669000      -0.2941480000
5

H       -0.2495025000      -0.4070870000      -1.3738703000
H       -0.4015313000      -1.6826607000      -0.1277576000
H        0.2815393000      -0.0171591000       0.3007539000
H       -1.4543768000      -0.2735963000      -0.0752680000
C       -0.4296304000      -0.5853949000      -0.2955252000
5

H       -0.2580155000      -0.3782252000      -1.3811267000
H       -0.4065064000      -1.6665880000      -0.0962398000
H        0.2770982000      -0.0276415000       0.3033742000
H       -1.4470066000      -0.2794327000      -0.0786235000
C       -0.4291192000      -0.5883200000      -0.2978246000
5

H       -0.2655610000      -0.3531702000      -1.3794887000
H       -0.4058410000      -1.6492239000      -0.0656944000
H        0.2756769000      -0.0379149000       0.3091951000
H       -1.4431942000      -0.2805394000      -0.0793950000
C       -0.4291178000      -0.5914487000      -0.3012754000
5

H       -0.2712113000      -0.3348177000      -1.3692153000
H       -0.3995121000      -1.6371785000      -0.0384887000
H        0.2769675000      -0.0466106000       0.3176863000
H       -1.4442303000      -0.2762953000      -0.0768622000
C       -0.4295722000      -0.5941496000      -0.3056720000
5

H       -0.2737154000      -0.3245687000      -1.3544746000
H       -0.3881935000      -1.6344041000      -0.0167611000
H        0.2793397000      -0.0534049000       0.3270422000
H       -1.4486162000      -0.2674942000      -0.0711145000
C       -0.4305196000      -0.5959335000      -0.3103259000
5

H       -0.2717840000      -0.3222650000      -1.3420511000
H       -0.3732010000      -1.6402127000      -0.0028341000
H        0.2807286000      -0.0586035000       0.3348988000
H       -1.4530041000      -0.2560746000      -0.0629973000
C       -0.4320654000      -0.5966831000      -0.3142035000
5

H       -0.2645688000      -0.3268028000      -1.3383539000
H       -0.3563455000      -1.6502098000       0.0010120000
H        0.2796518000      -0.0625487000       0.3392477000
H       -1.4540315000      -0.2444263000      -0.0538030000
C       -0.4342867000      -0.5966310000      -0.3162979000
5

H       -0.2522721000      -0.3371650000      -1.3456278000
H       -0.3396620000      -1.6591222000      -0.0066257000
H        0.2758926000      -0.0652155000       0.3391171000
H       -1.4499549000      -0.2346394000      -0.0448961000
C       -0.4371235000      -0.5961324000      -0.3161061000
5

H       -0.2364909000      -0.3529158000      -1.3602566000
H       -0.3250646000      -1.6633194000      -0.0255191000
H        0.2706531000      -0.0660820000       0.3348193000
H       -1.4414908000      -0.2279809000      -0.0373739000
C       -0.4403220000      -0.5954659000      -0.3138852000
5

H       -0.2198971000      -0.3736479000      -1.3749329000
H       -0.3140263000      -1.6620347000      -0.0536043000
H        0.2661566000      -0.0643279000       0.3277120000
H       -1.4317216000      -0.2247151000      -0.0318606000
C       -0.4434619000      -0.5947767000      -0.3104838000
5

H       -0.2054083000      -0.3981159000      -1.3827270000
H       -0.3073724000      -1.6573931000      -0.0873024000
H        0.2647568000      -0.0593337000       0.3195403000
H       -1.4250038000      -0.2243234000      -0.0285399000
C       -0.4460609000      -0.5940868000      -0.3069156000
5

H       -0.1953574000      -0.4239130000      -1.3801379000
H       -0.3052496000      -1.6534063000      -0.1221892000
H        0.2678530000      -0.0512902000       0.3116428000
H       -1.4250207000      -0.2260950000      -0.0274544000
C       -0.4477188000      -0.5933049000      -0.3039548000
5

H       -0.1909569000      -0.4477569000      -1.3682701000
H       -0.3073286000      -1.6540093000      -0.1538270000
H        0.2751819000      -0.0415343000       0.3044692000
H       -1.4328212000      -0.2297788000      -0.0288808000
C       -0.4482513000      -0.5922849000      -0.3018961000
5

H       -0.1921155000      -0.4661241000      -1.3524732000
H       -0.3131195000      -1.6608292000      -0.1785087000
H        0.2849451000      -0.0322776000       0.2977142000
H       -1.4461597000      -0.2357891000      -0.0334119000
C       -0.4477448000      -0.5909657000      -0.3005264000
5

H       -0.1976983000      -0.4760438000      -1.3404278000
H       -0.3221357000      -1.6720998000      -0.1937242000
H        0.2946650000      -0.0258365000       0.2909022000
H       -1.4606562000      -0.2447628000      -0.0416015000
C       -0.4464950000      -0.5894971000      -0.2993248000
5

H       -0.2062870000      -0.4758744000      -1.3385575000
H       -0.3337789000      -1.6835648000      -0.1983477000
H        0.3022206000      -0.0237859000       0.2839927000
H       -1.4719002000      -0.2568661000      -0.0534376000
C       -0.4448637000      -0.5882282000      -0.2978442000
5

H       -0.2170244000      -0.4657852000      -1.3482477000
H       -0.3471262000      -1.6906253000      -0.1926269000
H        0.3065677000      -0.0264278000       0.2776874000
H       -1.4772314000      -0.2713334000      -0.0680098000
C       -0.4431360000      -0.5875699000      -0.2960827000
5

H       -0.2297712000      -0.4477217000      -1.3649054000
H       -0.3608603000      -1.6903776000      -0.1779851000
H        0.3079161000      -0.0327363000       0.2733492000
H       -1.4765724000      -0.2864180000      -0.0835379000
C       -0.4414584000      -0.5878354000      -0.2945705000
5

H       -0.2444780000      -0.4248769000      -1.3808023000
H       -0.3734014000      -1.6827939000      -0.1566551000
H        0.3073326000      -0.0407722000       0.2725624000
H       -1.4722258000      -0.2997033000      -0.0976908000
C       -0.4398636000      -0.5891245000      -0.2940972000
5

H       -0.2605114000      -0.4009153000      -1.3890959000
H       -0.3831848000      -1.6708495000      -0.1312193000
H        0.3059092000      -0.0484328000       0.2764715000
H       -1.4677012000      -0.3086840000      -0.1080945000
C       -0.4383335000      -0.5912665000      -0.2953166000
5

H       -0.2764591000      -0.3792048000      -1.3865025000
H       -0.3889737000      -1.6594157000      -0.1042211000
H        0.3039393000      -0.0542162000       0.2851632000
H       -1.4658770000      -0.3115084000      -0.1128338000
C       -0.4368737000      -0.5938512000      -0.2984590000
5

H       -0.2903238000      -0.3621875000      -1.3742968000
H       -0.3901262000      -1.6530071000      -0.0780433000
H        0.3006434000      -0.0576190000       0.2974282000
H       -1.4673846000      -0.3076082000      -0.1108553000
C       -0.4355872000      -0.5963844000      -0.3032041000
5

H       -0.2998912000      -0.3509536000      -1.3580732000
H       -0.3867178000      -1.6534024000      -0.0550755000
H        0.2946583000      -0.0589956000       0.3110692000
H       -1.4702807000      -0.2978927000      -0.1021716000
C       -0.4347026000      -0.5985190000      -0.3086958000
5

H       -0.3032142000      -0.3452389000      -1.3459570000
H       -0.3794676000      -1.6588486000      -0.0378335000
H        0.2849416000      -0.0590607000       0.3236002000
H       -1.4712245000      -0.2844131000      -0.0878385000
C       -0.4345157000      -0.6001921000      -0.3137431000
5

H       -0.2991995000      -0.3441429000      -1.3447743000
H       -0.3695279000      -1.6654549000      -0.0286292000
H        0.2715667000      -0.0583735000       0.3329966000
H       -1.4672893000      -0.2696950000      -0.0697254000
C       -0.4352736000      -0.6015471000      -0.3172518000
5

H       -0.2881321000      -0.3472245000      -1.3557330000
H       -0.3582254000      -1.6695245000      -0.0289108000
H        0.2560698000      -0.0570242000       0.3382156000
H       -1.4574143000      -0.2560596000      -0.0501295000
C       -0.4370590000      -0.6027292000      -0.3187181000
5

H       -0.2717989000      -0.3548702000      -1.3733703000
H       -0.3468156000      -1.6692883000      -0.0387324000
H        0.2412462000      -0.0546206000       0.3393206000
H       -1.4430565000      -0.2451305000      -0.0313184000
C       -0.4397287000      -0.6037509000      -0.3184112000
5

H       -0.2530225000      -0.3675330000      -1.3889788000
H       -0.3362941000      -1.6654977000      -0.0566425000
H        0.2304193000      -0.0506042000       0.3371492000
H       -1.4279527000      -0.2376215000      -0.0151271000
C       -0.4429271000      -0.6044982000      -0.3171005000
5

H       -0.2348553000      -0.3847636000      -1.3952724000
H       -0.3273038000      -1.6609603000      -0.0799761000
H        0.2263575000      -0.0448018000       0.3326580000
H       -1.4169405000      -0.2334809000      -0.0027844000
C       -0.4461703000      -0.6047920000      -0.3155987000
5

H       -0.2198395000      -0.4048434000      -1.3893009000
H       -0.3201879000      -1.6591617000      -0.1054387000
H        0.2302652000      -0.0379189000       0.3263195000
H       -1.4140283000      -0.2323770000       0.0049318000
C       -0.4489805000      -0.6044526000      -0.3144046000
5

H       -0.2094958000      -0.4249995000      -1.3733424000
H       -0.3151805000      -1.6623776000      -0.1297896000
H        0.2413626000      -0.0315874000       0.3179859000
H       -1.4205377000      -0.2342738000       0.0073440000
C       -0.4510338000      -0.6033876000      -0.3135295000
5

H       -0.2041110000      -0.4419636000      -1.3542581000
H       -0.3126031000      -1.6702779000      -0.1503711000
H        0.2572749000      -0.0278464000       0.3072980000
H       -1.4344745000      -0.2396259000       0.0037193000
C       -0.4522470000      -0.6016898000      -0.3125292000
5

H       -0.2030159000      -0.4527944000      -1.3409909000
H       -0.3128602000      -1.6800216000      -0.1653493000
H        0.2749657000      -0.0283349000       0.2943088000
H       -1.4515626000      -0.2489994000      -0.0064425000
C       -0.4527467000      -0.5996595000      -0.3107689000
5

H       -0.2054634000      -0.4557955000      -1.3401042000
H       -0.3162189000      -1.6877460000      -0.1737588000
H        0.2917334000      -0.0336201000       0.2799121000
H       -1.4671820000      -0.2624415000      -0.0228941000
C       -0.4527345000      -0.5977120000      -0.3078743000
5

H       -0.2114975000      -0.4510765000      -1.3517545000
H       -0.3225537000      -1.6903905000      -0.1754542000
H        0.3058847000      -0.0429187000       0.2658778000
H       -1.4780969000      -0.2790554000      -0.0442978000
C       -0.4523469000      -0.5962362000      -0.3041053000
5

H       -0.2218411000      -0.4403828000      -1.3697523000
H       -0.3312236000      -1.6869784000      -0.1709944000
H        0.3168917000      -0.0542837000       0.2544995000
H       -1.4833570000      -0.2969559000      -0.0682614000
C       -0.4516122000      -0.5954895000      -0.3003286000
5

H       -0.2369139000      -0.4263643000      -1.3855696000
H       -0.3411279000      -1.6790567000      -0.1614447000
H        0.3249906000      -0.0651959000       0.2479805000
H       -1.4842619000      -0.3135779000      -0.0917174000
C       -0.4504984000      -0.5955462000      -0.2976134000
5

H       -0.2560377000      -0.4117797000      -1.3925763000
H       -0.3509169000      -1.6701940000      -0.1481422000
H        0.3304145000      -0.0733783000       0.2477505000
H       -1.4834572000      -0.3262419000      -0.1114712000
C       -0.4489732000      -0.5962913000      -0.2967924000
5

H       -0.2773127000      -0.3988935000      -1.3883150000
H       -0.3593095000      -1.6644808000      -0.1325304000
H        0.3327122000      -0.0774925000       0.2539792000
H       -1.4834215000      -0.3328383000      -0.1247435000
C       -0.4470576000      -0.5974803000      -0.2981985000
5

H       -0.2979556000      -0.3890630000      -1.3751198000
H       -0.3654092000      -1.6644662000      -0.1161515000
H        0.3306417000      -0.0773958000       0.2655053000
H       -1.4850247000      -0.3324010000      -0.1295923000
C       -0.4448833000      -0.5988781000      -0.3015716000
5

H       -0.3148650000      -0.3825204000      -1.3595552000
H       -0.3688662000      -1.6697331000      -0.1007347000
H        0.3227572000      -0.0738993000       0.2801981000
H       -1.4870246000      -0.3253308000      -0.1251809000
C       -0.4427229000      -0.6003983000      -0.3061067000
5

H       -0.3253472000      -0.3785587000      -1.3501335000
H       -0.3698108000      -1.6772220000      -0.0881309000
H        0.3082932000      -0.0682386000       0.2955755000
H       -1.4868080000      -0.3131880000      -0.1119054000
C       -0.4409471000      -0.6021228000      -0.3106916000
5

H       -0.3278647000      -0.3763063000      -1.3529575000
H       -0.3686449000      -1.6830486000      -0.0799798000
H        0.2878753000      -0.0615419000       0.3094465000
H       -1.4818228000      -0.2981967000      -0.0913566000
C       -0.4399183000      -0.6041695000      -0.3143584000
5

H       -0.3224784000      -0.3756492000      -1.3676129000
H       -0.3658351000      -1.6844900000      -0.0772588000
H        0.2637651000      -0.0544944000       0.3203779000
H       -1.4709020000      -0.2826848000      -0.0660653000
C       -0.4398800000      -0.6065240000      -0.3167269000
5

H       -0.3107226000      -0.3773501000      -1.3872136000
H       -0.3617738000      -1.6811475000      -0.0799789000
H        0.2395532000      -0.0472921000       0.3278261000
H       -1.4549960000      -0.2686263000      -0.0390515000
C       -0.4408921000      -0.6089733000      -0.3180757000
5

H       -0.2950303000      -0.3822570000      -1.4026433000
H       -0.3567097000      -1.6750386000      -0.0871688000
H        0.2193569000      -0.0399089000       0.3318841000
H       -1.4371342000      -0.2573645000      -0.0132909000
C       -0.4428208000      -0.6111662000      -0.3190096000
5

H       -0.2780466000      -0.3904744000      -1.4071109000
H       -0.3507629000      -1.6696725000      -0.0971441000
H        0.2067547000      -0.0325649000       0.3327757000
H       -1.4215854000      -0.2495777000       0.0087119000
C       -0.4453756000      -0.6127238000      -0.3200485000
5

H       -0.2620492000      -0.4010467000      -1.3986160000
H       -0.3440397000      -1.6683097000      -0.1079907000
H        0.2038382000      -0.0261004000       0.3304237000
H       -1.4124007000      -0.2454927000       0.0250814000
C       -0.4481921000      -0.6133628000      -0.3213568000
5

H       -0.2485293000      -0.4120702000      -1.3805379000
H       -0.3368130000      -1.6721403000      -0.1180959000
H        0.2107640000      -0.0219676000       0.3244052000
H       -1.4118934000      -0.2452179000       0.0344695000
C       -0.4509406000      -0.6130121000      -0.3226379000
5

H       -0.2380008000      -0.4211192000      -1.3606893000
H       -0.3296498000      -1.6795522000      -0.1264602000
H        0.2259298000      -0.0217755000       0.3143224000
H       -1.4198341000      -0.2489398000       0.0359191000
C       -0.4534152000      -0.6118599000      -0.3232059000
5

H       -0.2302914000      -0.4260142000      -1.3482524000
H       -0.3233506000      -1.6870599000      -0.1327040000
H        0.2466098000      -0.0266372000       0.3003166000
H       -1.4337679000      -0.2568087000       0.0289440000
C       -0.4555404000      -0.6102760000      -0.3222925000
5

H       -0.2254161000      -0.4257854000      -1.3488466000
H       -0.3187266000      -1.6911663000      -0.1368817000
H        0.2697518000      -0.0366416000       0.2834043000
H       -1.4501655000      -0.2686136000       0.0138253000
C       -0.4572867000      -0.6086458000      -0.3195302000
5

H       -0.2243182000      -0.4212042000      -1.3610109000
H       -0.3163551000      -1.6899801000      -0.1392730000
H        0.2926494000      -0.0506595000       0.2654629000
H       -1.4657179000      -0.2835067000      -0.0081323000
C       -0.4585772000      -0.6072292000      -0.3152856000
5

H       -0.2285304000      -0.4143678000      -1.3775431000
H       -0.3164245000      -1.6839819000      -0.1402308000
H        0.3133043000      -0.0665349000       0.2488850000
H       -1.4782299000      -0.2999576000      -0.0346116000
C       -0.4592839000      -0.6061194000      -0.3105294000
5

H       -0.2390718000      -0.4077116000      -1.3901519000
H       -0.3187108000      -1.6758577000      -0.1400901000
H        0.3304150000      -0.0815913000       0.2360533000
H       -1.4869285000      -0.3159505000      -0.0625687000
C       -0.4592958000      -0.6052803000      -0.3063857000
5

H       -0.2556455000      -0.4031691000      -1.3933477000
H       -0.3226933000      -1.6694262000      -0.1391376000
H        0.3430825000      -0.0932956000       0.2288151000
H       -1.4922310000      -0.3293490000      -0.0886619000
C       -0.4585709000      -0.6046211000      -0.3037271000
5

H       -0.2765057000      -0.4017312000      -1.3861367000
H       -0.3277812000      -1.6678870000      -0.1376605000
H        0.3504562000      -0.0998538000       0.2281033000
H       -1.4951389000      -0.3383300000      -0.1096972000
C       -0.4571497000      -0.6040938000      -0.3029595000
5

H       -0.2987772000      -0.4032886000      -1.3722025000
H       -0.3335285000      -1.6721683000      -0.1360327000
H        0.3515844000      -0.1005388000       0.2337892000
H       -1.4965015000      -0.3417560000      -0.1230166000
C       -0.4551603000      -0.6037856000      -0.3039544000
5

H       -0.3190711000      -0.4067346000      -1.3588536000
H       -0.3396970000      -1.6804428000      -0.1347260000
H        0.3456163000      -0.0956864000       0.2447607000
H       -1.4964830000      -0.3393809000      -0.1268246000
C       -0.4528218000      -0.6039353000      -0.3061159000
5

H       -0.3343489000      -0.4104659000      -1.3540894000
H       -0.3461373000      -1.6891752000      -0.1341796000
H        0.3322367000      -0.0864139000       0.2592092000
H       -1.4944779000      -0.3318409000      -0.1204621000
C       -0.4504264000      -0.6048274000      -0.3086387000
5

H       -0.3427709000      -0.4132278000      -1.3620775000
H       -0.3526171000      -1.6949321000      -0.1345940000
H        0.3121084000      -0.0742288000       0.2750392000
H       -1.4894874000      -0.3204656000      -0.1045752000
C       -0.4482878000      -0.6066173000      -0.3109257000
5

H       -0.3440628000      -0.4147316000      -1.3801491000
H       -0.3587225000      -1.6958816000      -0.1357821000
H        0.2870923000      -0.0606832000       0.2902793000
H       -1.4807565000      -0.3069912000      -0.0810814000
C       -0.4466834000      -0.6092072000      -0.3128903000
5

H       -0.3392345000      -0.4154833000      -1.4003652000
H       -0.3638655000      -1.6924573000      -0.1371473000
H        0.2601016000      -0.0471742000       0.3033509000
H       -1.4683717000      -0.2932585000      -0.0528807000
C       -0.4458151000      -0.6122462000      -0.3148734000
5

H       -0.3300020000      -0.4161177000      -1.4140862000
H       -0.3673769000      -1.6870837000      -0.1378032000
H        0.2346410000      -0.0349106000       0.3131404000
H       -1.4535631000      -0.2809440000      -0.0233687000
C       -0.4457862000      -0.6152354000      -0.3172963000
5

H       -0.3182571000      -0.4168699000      -1.4158225000
H       -0.3686485000      -1.6830193000      -0.1368137000
H        0.2141798000      -0.0249705000       0.3189347000
H       -1.4385577000      -0.2713700000       0.0041047000
C       -0.4465930000      -0.6176796000      -0.3203575000
5

H       -0.3056670000      -0.4173775000      -1.4050215000
H       -0.3672891000      -1.6826457000      -0.1335270000
H        0.2015426000      -0.0183443000       0.3203329000
H       -1.4260334000      -0.2654131000       0.0266679000
C       -0.4481406000      -0.6192523000      -0.3238830000
5

H       -0.2933739000      -0.4167118000      -1.3862709000
H       -0.3632457000      -1.6860946000      -0.1278964000
H        0.1984518000      -0.0158925000       0.3172218000
H       -1.4183766000      -0.2634968000       0.0421787000
C       -0.4502819000      -0.6199128000      -0.3273024000
5

H       -0.2818743000      -0.4136480000      -1.3679150000
H       -0.3568398000      -1.6911852000      -0.1206100000
H        0.2052822000      -0.0182080000       0.3098192000
H       -1.4170390000      -0.2656255000       0.0493247000
C       -0.4528575000      -0.6198968000      -0.3297651000
5

H       -0.2713141000      -0.4073202000      -1.3584189000
H       -0.3486983000      -1.6947349000      -0.1129290000
H        0.2210468000      -0.0254460000       0.2987251000
H       -1.4222307000      -0.2714262000       0.0476499000
C       -0.4557021000      -0.6195628000      -0.3304660000
5

H       -0.2622106000      -0.3980993000      -1.3614709000
H       -0.3396198000      -1.6942976000      -0.1063159000
H        0.2435874000      -0.0371876000       0.2849117000
H       -1.4329867000      -0.2801873000       0.0375582000
C       -0.4586049000      -0.6191797000      -0.3290879000
5

H       -0.2559275000      -0.3879588000      -1.3737169000
H       -0.3304325000      -1.6893625000      -0.1020481000
H        0.2699206000      -0.0523970000       0.2696229000
H       -1.4474698000      -0.2909262000       0.0202662000
C       -0.4612856000      -0.6187944000      -0.3260118000
5

H       -0.2542368000      -0.3797852000      -1.3874341000
H       -0.3218846000      -1.6816155000      -0.1009630000
H        0.2966847000      -0.0694892000       0.2542343000
H       -1.4633548000      -0.3025031000      -0.0023283000
C       -0.4634455000      -0.6182518000      -0.3220913000
5

H       -0.2583793000      -0.3761822000      -1.3952635000
H       -0.3146018000      -1.6742578000      -0.1033905000
H        0.3206447000      -0.0864913000       0.2401530000
H       -1.4782410000      -0.3137573000      -0.0278341000
C       -0.4648578000      -0.6173274000      -0.3182355000
5

H       -0.2684271000      -0.3786023000      -1.3934080000
H       -0.3091382000      -1.6705783000      -0.1092619000
H        0.3391736000      -0.1012771000       0.2287651000
H       -1.4900900000      -0.3236262000      -0.0535614000
C       -0.4654207000      -0.6158908000      -0.3151113000
5

H       -0.2831526000      -0.3870110000      -1.3827195000
H       -0.3060675000      -1.6723456000      -0.1182809000
H        0.3505959000      -0.1118545000       0.2213581000
H       -1.4976215000      -0.3312176000      -0.0767165000
C       -0.4651557000      -0.6140383000      -0.3130146000
5

H       -0.3002603000      -0.3999483000      -1.3683965000
H       -0.3059979000      -1.6789245000      -0.1299962000
H        0.3542939000      -0.1166711000       0.2189530000
H       -1.5005448000      -0.3358593000      -0.0946471000
C       -0.4641769000      -0.6121328000      -0.3118553000
5

H       -0.3169354000      -0.4149752000      -1.3582192000
H       -0.3094154000      -1.6877002000      -0.1437013000
H        0.3505745000      -0.1148778000       0.2220609000
H       -1.4995002000      -0.3371428000      -0.1051521000
C       -0.4626522000      -0.6107042000      -0.3112672000
5

H       -0.3306708000      -0.4295100000      -1.3588803000
H       -0.3164308000      -1.6954671000      -0.1582853000
H        0.3403784000      -0.1065029000       0.2304542000
H       -1.4956887000      -0.3349773000      -0.1068279000
C       -0.4607608000      -0.6102438000      -0.3108803000
5

H       -0.3400184000      -0.4416726000      -1.3718049000
H       -0.3265967000      -1.6998910000      -0.1722110000
H        0.3249679000      -0.0925181000       0.2430598000
H       -1.4903175000      -0.3296530000      -0.0993670000
C       -0.4586666000      -0.6110000000      -0.3106400000
5

H       -0.3447642000      -0.4505313000      -1.3919648000
H       -0.3388976000      -1.7003914000      -0.1836812000
H        0.3057045000      -0.0747691000       0.2580563000
H       -1.4841104000      -0.3218858000      -0.0837022000
C       -0.4565264000      -0.6128846000      -0.3108883000
5

H       -0.3455400000      -0.4557482000      -1.4109441000
H       -0.3519080000      -1.6982442000      -0.1909211000
H        0.2840107000      -0.0557524000       0.2731614000
H       -1.4771471000      -0.3127924000      -0.0619126000
C       -0.4545197000      -0.6155154000      -0.3121146000
5

H       -0.3433189000      -0.4571713000      -1.4213041000
H       -0.3640627000      -1.6959074000      -0.1924801000
H        0.2614845000      -0.0382086000       0.2860783000
H       -1.4691229000      -0.3037519000      -0.0368886000
C       -0.4528561000      -0.6183528000      -0.3146301000
5

H       -0.3390667000      -0.4546630000      -1.4194126000
H       -0.3739507000      -1.6957157000      -0.1875072000
H        0.2400569000      -0.0245948000       0.2949944000
H       -1.4598615000      -0.2961591000      -0.0118406000
C       -0.4517500000      -0.6208890000      -0.3183896000
5

H       -0.3335305000      -0.4480690000      -1.4064840000
H       -0.3805270000      -1.6984868000      -0.1759893000
H        0.2220208000      -0.0165863000       0.2989845000
H       -1.4497769000      -0.2911364000       0.0102186000
C       -0.4513840000      -0.6228332000      -0.3229613000
5

H       -0.3271162000      -0.4372326000      -1.3883065000
H       -0.3831933000      -1.7029175000      -0.1589194000
H        0.2098340000      -0.0147882000       0.2981830000
H       -1.4400563000      -0.2892911000       0.0269066000
C       -0.4518810000      -0.6242061000      -0.3275869000
5

H       -0.3199168000      -0.4221516000      -1.3732702000
H       -0.3817616000      -1.7062639000      -0.1382703000
H        0.2056819000      -0.0187632000       0.2936385000
H       -1.4324997000      -0.2905971000       0.0367616000
C       -0.4532813000      -0.6252774000      -0.3313613000
5

H       -0.3120312000      -0.4034659000      -1.3682720000
H       -0.3763884000      -1.7058708000      -0.1166913000
H        0.2108809000      -0.0273685000       0.2868613000
H       -1.4290647000      -0.2944286000       0.0393412000
C       -0.4555097000      -0.6263645000      -0.3335725000
5

H       -0.3040559000      -0.3831165000      -1.3744627000
H       -0.3675140000      -1.7006160000      -0.0969814000
H        0.2252819000      -0.0392543000       0.2791988000
H       -1.4312246000      -0.2997606000       0.0351079000
C       -0.4583428000      -0.6275983000      -0.3340404000
5

H       -0.2972278000      -0.3644045000      -1.3867024000
H       -0.3558170000      -1.6915857000      -0.0815584000
H        0.2469385000      -0.0532652000       0.2713382000
H       -1.4392981000      -0.3054966000       0.0251355000
C       -0.4614293000      -0.6287996000      -0.3331416000
5

H       -0.2929671000      -0.3510624000      -1.3972583000
H       -0.3421762000      -1.6817487000      -0.0721109000
H        0.2723213000      -0.0685130000       0.2632522000
H       -1.4520443000      -0.3107992000       0.0107801000
C       -0.4643838000      -0.6295507000      -0.3314957000
5

H       -0.2922388000      -0.3459977000      -1.4001294000
H       -0.3276683000      -1.6747218000      -0.0695465000
H        0.2971329000      -0.0841348000       0.2546178000
H       -1.4668331000      -0.3152764000      -0.0064923000
C       -0.4668952000      -0.6294087000      -0.3296261000
5

H       -0.2951739000      -0.3504637000      -1.3934248000
H       -0.3136077000      -1.6730895000      -0.0741861000
H        0.3174268000      -0.0989965000       0.2453976000
H       -1.4804406000      -0.3189317000      -0.0250908000
C       -0.4687813000      -0.6281462000      -0.3277949000
5

H       -0.3010013000      -0.3637974000      -1.3798979000
H       -0.3015609000      -1.6771549000      -0.0859495000
H        0.3305659000      -0.1115727000       0.2362195000
H       -1.4901302000      -0.3219449000      -0.0432379000
C       -0.4699836000      -0.6259065000      -0.3259800000
5

H       -0.3082368000      -0.3836603000      -1.3660968000
H       -0.2931978000      -1.6849188000      -0.1042962000
H        0.3357238000      -0.1200733000       0.2283957000
H       -1.4945388000      -0.3244312000      -0.0590176000
C       -0.4705318000      -0.6231944000      -0.3239477000
5

H       -0.3151676000      -0.4068134000      -1.3597551000
H       -0.2899439000      -1.6932413000      -0.1279673000
H        0.3338340000      -0.1227639000       0.2235974000
H       -1.4940405000      -0.3262981000      -0.0705834000
C       -0.4704971000      -0.6206990000      -0.3214497000
5

H       -0.3205665000      -0.4301942000      -1.3655698000
H       -0.2925849000      -1.6993631000      -0.1548113000
H        0.3269862000      -0.1184245000       0.2232844000
H       -1.4904719000      -0.3272610000      -0.0764787000
C       -0.4699374000      -0.6190353000      -0.3185171000
5

H       -0.3241898000      -0.4515728000      -1.3819896000
H       -0.3010139000      -1.7019991000      -0.1819129000
H        0.3174245000      -0.1068853000       0.2280462000
H       -1.4862648000      -0.3270116000      -0.0759721000
C       -0.4688662000      -0.6185394000      -0.3156364000
5

H       -0.3266259000      -0.4693796000      -1.4021165000
H       -0.3142106000      -1.7017007000      -0.2059994000
H        0.3065584000      -0.0894413000       0.2371481000
H       -1.4832747000      -0.3254744000      -0.0692949000
C       -0.4672826000      -0.6191940000      -0.3135805000
5

H       -0.3287191000      -0.4822635000      -1.4177862000
H       -0.3304544000      -1.7004893000      -0.2239615000
H        0.2946313000      -0.0688681000       0.2485622000
H       -1.4818941000      -0.3230031000      -0.0576697000
C       -0.4652479000      -0.6206803000      -0.3130233000
5

H       -0.3310866000      -0.4889788000      -1.4232972000
H       -0.3477033000      -1.7008408000      -0.2333253000
H        0.2812167000      -0.0488213000       0.2596114000
H       -1.4810184000      -0.3203653000      -0.0430779000
C       -0.4629388000      -0.6225234000      -0.3142601000
5

H       -0.3339067000      -0.4885526000      -1.4172042000
H       -0.3639975000      -1.7043100000      -0.2326055000
H        0.2661399000      -0.0328378000       0.2679020000
H       -1.4788733000      -0.3184877000      -0.0278321000
C       -0.4606393000      -0.6242997000      -0.3171419000
5

H       -0.3368896000      -0.4804728000      -1.4026352000
H       -0.3777239000      -1.7104752000      -0.2215500000
H        0.2502009000      -0.0233717000       0.2721150000
H       -1.4741453000      -0.3180991000      -0.0140909000
C       -0.4586867000      -0.6258204000      -0.3211352000
5

H       -0.3393817000      -0.4648043000      -1.3864024000
H       -0.3876883000      -1.7169379000      -0.2012814000
H        0.2353747000      -0.0212174000       0.2723863000
H       -1.4667965000      -0.3194454000      -0.0034564000
C       -0.4574051000      -0.6271940000      -0.3254503000
5

H       -0.3406454000      -0.4423433000      -1.3763256000
H       -0.3930786000      -1.7204673000      -0.1742365000
H        0.2244593000      -0.0254830000       0.2701797000
H       -1.4582732000      -0.3221755000       0.0032637000
C       -0.4570382000      -0.6287294000      -0.3292810000
5

H       -0.3402808000      -0.4149624000      -1.3769781000
H       -0.3934399000      -1.7186168000      -0.1438024000
H        0.2202356000      -0.0341407000       0.2676278000
H       -1.4510778000      -0.3254235000       0.0060776000
C       -0.4576811000      -0.6307177000      -0.3321384000
5

H       -0.3385091000      -0.3859306000      -1.3867141000
H       -0.3886890000      -1.7109789000      -0.1136967000
H        0.2243212000      -0.0449948000       0.2664814000
H       -1.4478098000      -0.3280863000       0.0055889000
C       -0.4592396000      -0.6331953000      -0.3340461000
5

H       -0.3360279000      -0.3595897000      -1.3989598000
H       -0.3791371000      -1.6995561000      -0.0873073000
H        0.2362147000      -0.0565867000       0.2671614000
H       -1.4499647000      -0.3292359000       0.0025993000
C       -0.4614613000      -0.6358302000      -0.3353744000
5

H       -0.3335735000      -0.3402589000      -1.4064299000
H       -0.3654955000      -1.6880705000      -0.0672470000
H        0.2531817000      -0.0684520000       0.2685748000
H       -1.4570816000      -0.3285036000      -0.0022456000
C       -0.4640336000      -0.6380172000      -0.3364781000
5

H       -0.3315536000      -0.3310523000      -1.4047161000
H       -0.3488806000      -1.6803787000      -0.0552710000
H        0.2711800000      -0.0806307000       0.2688438000
H       -1.4668194000      -0.3262230000      -0.0085362000
C       -0.4666853000      -0.6391394000      -0.3374568000
5

H       -0.3298915000      -0.3331444000      -1.3938788000
H       -0.3308370000      -1.6786858000      -0.0524795000
H        0.2862827000      -0.0929449000       0.2663854000
H       -1.4759762000      -0.3232502000      -0.0159137000
C       -0.4692324000      -0.6388559000      -0.3381104000
5

H       -0.3280397000      -0.3455792000      -1.3784748000
H       -0.3133123000      -1.6826100000      -0.0594765000
H        0.2958752000      -0.1045496000       0.2607003000
H       -1.4818543000      -0.3205772000      -0.0238302000
C       -0.4715643000      -0.6372668000      -0.3380093000
5

H       -0.3251723000      -0.3656885000      -1.3660805000
H       -0.2984639000      -1.6896763000      -0.0762026000
H        0.2992830000      -0.1138965000       0.2526244000
H       -1.4833076000      -0.3189463000      -0.0314517000
C       -0.4736091000      -0.6348715000      -0.3366623000
5

H       -0.3206527000      -0.3901630000      -1.3638184000
H       -0.2882790000      -1.6967774000      -0.1015564000
H        0.2977690000      -0.1190164000       0.2440848000
H       -1.4811355000      -0.3186248000      -0.0377554000
C       -0.4752921000      -0.6323519000      -0.3338116000
5

H       -0.3146590000      -0.4162349000      -1.3739749000
H       -0.2841496000      -1.7016201000      -0.1331741000
H        0.2938809000      -0.1180718000       0.2374317000
H       -1.4777236000      -0.3194088000      -0.0417771000
C       -0.4764953000      -0.6303043000      -0.3297419000
5

H       -0.3084353000      -0.4419849000      -1.3922616000
H       -0.2865728000      -1.7035263000      -0.1676049000
H        0.2901967000      -0.1101314000       0.2344578000
H       -1.4759525000      -0.3208647000      -0.0429424000
C       -0.4770474000      -0.6290612000      -0.3253020000
5

H       -0.3038121000      -0.4657317000      -1.4105864000
H       -0.2950692000      -1.7034762000      -0.2008162000
H        0.2879798000      -0.0959099000       0.2355187000
H       -1.4777005000      -0.3227051000      -0.0413628000
C       -0.4767830000      -0.6286457000      -0.3215308000
5

H       -0.3024042000      -0.4855152000      -1.4215461000
H       -0.3083443000      -1.7035086000      -0.2288198000
H        0.2865996000      -0.0779523000       0.2393408000
H       -1.4827603000      -0.3250593000      -0.0379180000
C       -0.4756396000      -0.6288269000      -0.3192041000
5

H       -0.3050495000      -0.4991771000      -1.4213761000
H       -0.3246273000      -1.7056523000      -0.2482339000
H        0.2841858000      -0.0599719000       0.2437068000
H       -1.4889429000      -0.3284124000      -0.0340010000
C       -0.4737224000      -0.6292631000      -0.3186190000
5

H       -0.3116183000      -0.5047659000      -1.4108985000
H       -0.3420454000      -1.7107749000      -0.2567014000
H        0.2789630000      -0.0456453000       0.2465603000
H       -1.4933010000      -0.3332476000      -0.0310291000
C       -0.4712982000      -0.6296960000      -0.3196128000
5

H       -0.3210877000      -0.5009482000      -1.3951845000
H       -0.3588627000      -1.7179441000      -0.2531838000
H        0.2703693000      -0.0374753000       0.2469118000
H       -1.4936404000      -0.3396468000      -0.0299583000
C       -0.4687356000      -0.6300991000      -0.3216835000
5

H       -0.3318614000      -0.4873380000      -1.3818805000
H       -0.3735491000      -1.7247259000      -0.2381499000
H        0.2595265000      -0.0361375000       0.2452329000
H       -1.4895476000      -0.3470663000      -0.0309815000
C       -0.4664263000      -0.6306982000      -0.3241732000
5

H       -0.3423274000      -0.4647967000      -1.3777438000
H       -0.3847802000      -1.7282839000      -0.2135746000
H        0.2489917000      -0.0404509000       0.2432943000
H       -1.4826122000      -0.3543581000      -0.0334835000
C       -0.4646979000      -0.6318546000      -0.3265486000
5

H       -0.3513978000      -0.4357229000      -1.3846040000
H       -0.3914827000      -1.7267069000      -0.1826395000
H        0.2418341000      -0.0480209000       0.2434275000
H       -1.4758066000      -0.3600278000      -0.0362754000
C       -0.4637399000      -0.6338540000      -0.3286843000
5

H       -0.3586237000      -0.4040387000      -1.3981077000
H       -0.3929424000      -1.7199616000      -0.1491558000
H        0.2402253000      -0.0564140000       0.2473359000
H       -1.4721410000      -0.3626715000      -0.0380629000
C       -0.4635796000      -0.6366919000      -0.3308776000
5

H       -0.3638827000      -0.3745124000      -1.4106292000
H       -0.3889204000      -1.7100484000      -0.1169039000
H        0.2442128000      -0.0642802000       0.2550169000
H       -1.4730965000      -0.3614799000      -0.0379831000
C       -0.4641268000      -0.6399812000      -0.3335240000
5

H       -0.3670378000      -0.3516008000      -1.4155439000
H       -0.3797270000      -1.7002128000      -0.0891373000
H        0.2515737000      -0.0716484000       0.2645808000
H       -1.4777549000      -0.3565827000      -0.0359116000
C       -0.4652576000      -0.6430618000      -0.3367578000
5

H       -0.3677978000      -0.3383993000      -1.4100076000
H       -0.3662335000      -1.6934808000      -0.0684173000
H        0.2589179000      -0.0792642000       0.2731402000
H       -1.4832705000      -0.3490265000      -0.0323691000
C       -0.4668773000      -0.6452691000      -0.3403167000
5

H       -0.3657230000      -0.3360153000      -1.3959018000
H       -0.3498373000      -1.6912742000      -0.0566853000
H        0.2632445000      -0.0876261000       0.2781108000
H       -1.4863595000      -0.3404041000      -0.0281533000
C       -0.4689291000      -0.6462153000      -0.3435957000
5

H       -0.3602933000      -0.3434456000      -1.3793965000
H       -0.3323540000      -1.6929753000      -0.0552912000
H        0.2630931000      -0.0963701000       0.2781817000
H       -1.4848639000      -0.3323312000      -0.0239582000
C       -0.4713629000      -0.6459311000      -0.3457951000
5

H       -0.3510941000      -0.3581450000      -1.3687771000
H       -0.3157959000      -1.6966435000      -0.0647665000
H        0.2589966000      -0.1041590000       0.2736918000
H       -1.4787129000      -0.3260025000      -0.0201547000
C       -0.4740953000      -0.6448052000      -0.3461715000
5

H       -0.3382419000      -0.3773171000      -1.3702074000
H       -0.3020613000      -1.7002596000      -0.0844652000
H        0.2532695000      -0.1089871000       0.2664284000
H       -1.4700929000      -0.3219471000      -0.0167526000
C       -0.4769679000      -0.6433660000      -0.3444107000
5

H       -0.3229168000      -0.3990759000      -1.3836025000
H       -0.2926211000      -1.7027068000      -0.1123896000
H        0.2491181000      -0.1088515000       0.2588646000
H       -1.4627700000      -0.3200591000      -0.0135416000
C       -0.4797110000      -0.6420427000      -0.3409128000
5

H       -0.3074492000      -0.4223760000      -1.4025167000
H       -0.2882998000      -1.7040982000      -0.1453827000
H        0.2491664000      -0.1027100000       0.2529907000
H       -1.4605601000      -0.3199390000      -0.0104222000
C       -0.4819596000      -0.6410348000      -0.3366602000
5

H       -0.2946750000      -0.4460575000      -1.4182619000
H       -0.2892197000      -1.7054695000      -0.1796163000
H        0.2540413000      -0.0913162000       0.2493065000
H       -1.4653994000      -0.3214068000      -0.0078034000
C       -0.4833552000      -0.6403044000      -0.3327116000
5

H       -0.2870206000      -0.4682411000      -1.4243577000
H       -0.2949118000      -1.7080629000      -0.2111643000
H        0.2620010000      -0.0772870000       0.2467242000
H       -1.4761584000      -0.3248213000      -0.0067601000
C       -0.4836819000      -0.6396551000      -0.3297593000
5

H       -0.2858646000      -0.4864524000      -1.4187988000
H       -0.3045258000      -1.7125318000      -0.2364984000
H        0.2699296000      -0.0642016000       0.2434607000
H       -1.4891511000      -0.3308844000      -0.0086960000
C       -0.4829435000      -0.6388804000      -0.3280003000
5

H       -0.2912849000      -0.4981028000      -1.4044281000
H       -0.3170087000      -1.7184570000      -0.2528637000
H        0.2749199000      -0.0552756000       0.2382163000
H       -1.4999750000      -0.3400808000      -0.0146864000
C       -0.4813476000      -0.6379220000      -0.3272279000
5

H       -0.3021421000      -0.5010454000      -1.3880207000
H       -0.3311747000      -1.7244300000      -0.2585765000
H        0.2755250000      -0.0522860000       0.2309665000
H       -1.5054684000      -0.3521638000      -0.0248908000
C       -0.4792336000      -0.6369504000      -0.3269991000
5

H       -0.3165397000      -0.4941359000      -1.3777587000
H       -0.3457019000      -1.7286388000      -0.2532580000
H        0.2722892000      -0.0550662000       0.2231648000
H       -1.5049157000      -0.3659512000      -0.0382890000
C       -0.4769777000      -0.6363270000      -0.3268664000
5

H       -0.3325601000      -0.4777520000      -1.3790699000
H       -0.3591474000      -1.7296587000      -0.2379096000
H        0.2674823000      -0.0616551000       0.2173779000
H       -1.5002554000      -0.3794585000      -0.0527938000
C       -0.4748897000      -0.6364711000      -0.3266804000
5

H       -0.3487907000      -0.4540840000      -1.3911853000
H       -0.3700591000      -1.7271283000      -0.2147354000
H        0.2640186000      -0.0691483000       0.2163572000
H       -1.4952190000      -0.3903260000      -0.0657327000
C       -0.4731416000      -0.6376712000      -0.3267760000
5

H       -0.3642319000      -0.4268694000      -1.4076529000
H       -0.3771733000      -1.7220263000      -0.1867227000
H        0.2637901000      -0.0750730000       0.2217310000
H       -1.4934699000      -0.3964647000      -0.0746021000
C       -0.4717746000      -0.6399142000      -0.3277915000
5

H       -0.3779115000      -0.4005063000      -1.4203338000
H       -0.3796416000      -1.7163240000      -0.1571311000
H        0.2663429000      -0.0785584000       0.2329876000
H       -1.4964804000      -0.3967266000      -0.0778040000
C       -0.4707798000      -0.6428345000      -0.3302277000
5

H       -0.3887203000      -0.3789700000      -1.4233752000
H       -0.3772137000      -1.7120388000      -0.1290922000
H        0.2689976000      -0.0804478000       0.2475257000
H       -1.5025508000      -0.3912816000      -0.0749931000
C       -0.4701892000      -0.6458437000      -0.3341238000
5

H       -0.3955111000      -0.3649508000      -1.4152783000
H       -0.3703055000      -1.7101684000      -0.1054193000
H        0.2683648000      -0.0823571000       0.2617726000
H       -1.5077599000      -0.3814918000      -0.0669161000
C       -0.4701088000      -0.6483822000      -0.3390062000
5

H       -0.3972734000      -0.3593512000      -1.3993789000
H       -0.3599246000      -1.7102353000      -0.0885273000
H        0.2621053000      -0.0855117000       0.2725818000
H       -1.5080749000      -0.3693956000      -0.0549705000
C       -0.4706810000      -0.6501402000      -0.3440104000
5

H       -0.3932903000      -0.3612250000      -1.3830018000
H       -0.3474679000      -1.7107766000      -0.0802612000
H        0.2500128000      -0.0900253000       0.2782260000
H       -1.5012412000      -0.3570892000      -0.0407607000
C       -0.4720207000      -0.6511345000      -0.3480869000
5

H       -0.3833179000      -0.3684359000      -1.3746386000
H       -0.3344461000      -1.7103989000      -0.0815751000
H        0.2342577000      -0.0947420000       0.2787916000
H       -1.4877645000      -0.3462252000      -0.0257762000
C       -0.4741613000      -0.6516202000      -0.3503244000
5

H       -0.3678862000      -0.3789901000      -1.3792372000
H       -0.3222170000      -1.7087006000      -0.0922280000
H        0.2188771000      -0.0975763000       0.2759531000
H       -1.4709551000      -0.3377231000      -0.0111873000
C       -0.4770052000      -0.6518960000      -0.3503698000
5

H       -0.3486330000      -0.3920441000      -1.3947199000
H       -0.3117965000      -1.7065708000      -0.1107288000
H        0.2084912000      -0.0963661000       0.2720705000
H       -1.4560434000      -0.3317568000       0.0022077000
C       -0.4802784000      -0.6521251000      -0.3486538000
5

H       -0.3282675000      -0.4075577000      -1.4133025000
H       -0.3037994000      -1.7057361000      -0.1346125000
H        0.2064428000      -0.0901013000       0.2687937000
H       -1.4482916000      -0.3281014000       0.0137721000
C       -0.4835406000      -0.6522697000      -0.3461228000
5

H       -0.3099551000      -0.4252061000      -1.4262923000
H       -0.2985298000      -1.7077628000      -0.1609344000
H        0.2132457000      -0.0798679000       0.2660045000
H       -1.4506019000      -0.3267300000       0.0225899000
C       -0.4862997000      -0.6521364000      -0.3436671000
5

H       -0.2964868000      -0.4437407000      -1.4281934000
H       -0.2961585000      -1.7130348000      -0.1867502000
H        0.2264405000      -0.0686887000       0.2619942000
H       -1.4620166000      -0.3282264000       0.0271729000
C       -0.4881807000      -0.6514949000      -0.3417270000
5

H       -0.2896575000      -0.4610384000      -1.4184490000
H       -0.2968453000      -1.7203395000      -0.2094204000
H        0.2419370000      -0.0602636000       0.2547344000
H       -1.4782861000      -0.3335837000       0.0257651000
C       -0.4890330000      -0.6502311000      -0.3402531000
5

H       -0.2899650000      -0.4745179000      -1.4014405000
H       -0.3006852000      -1.7273580000      -0.2267722000
H        0.2558274000      -0.0574597000       0.2432264000
H       -1.4940341000      -0.3435209000       0.0171212000
C       -0.4889300000      -0.6484555000      -0.3388717000
5

H       -0.2966756000      -0.4817311000      -1.3850669000
H       -0.3075244000      -1.7317330000      -0.2372496000
H        0.2657543000      -0.0612947000       0.2282180000
H       -1.5050461000      -0.3578559000       0.0012340000
C       -0.4881022000      -0.6465014000      -0.3371121000
5

H       -0.3083421000      -0.4810932000      -1.3774528000
H       -0.3167910000      -1.7320922000      -0.2400881000
H        0.2715406000      -0.0705943000       0.2122197000
H       -1.5097175000      -0.3752572000      -0.0203480000
C       -0.4868392000      -0.6448274000      -0.3346972000
5

H       -0.3235611000      -0.4725762000      -1.3824776000
H       -0.3274585000      -1.7286255000      -0.2354311000
H        0.2750084000      -0.0823305000       0.1989099000
H       -1.5094364000      -0.3933835000      -0.0446738000
C       -0.4853816000      -0.6438713000      -0.3318458000
5

H       -0.3413002000      -0.4579373000      -1.3973292000
H       -0.3381677000      -1.7230953000      -0.2242876000
H        0.2788197000      -0.0927059000       0.1919552000
H       -1.5078182000      -0.4093539000      -0.0679964000
C       -0.4838506000      -0.6438982000      -0.3293321000
5

H       -0.3605441000      -0.4402221000      -1.4144832000
H       -0.3474823000      -1.7182177000      -0.2083201000
H        0.2845523000      -0.0987836000       0.1934995000
H       -1.5087681000      -0.4204862000      -0.0866957000
C       -0.4822561000      -0.6448961000      -0.3281325000
5

H       -0.3798611000      -0.4228166000      -1.4260882000
H       -0.3542153000      -1.7164665000      -0.1895563000
H        0.2911564000      -0.0997873000       0.2031274000
H       -1.5140647000      -0.4250684000      -0.0981504000
C       -0.4805807000      -0.6465817000      -0.3289212000
5

H       -0.3973890000      -0.4085586000      -1.4273487000
H       -0.3577125000      -1.7187448000      -0.1701608000
H        0.2951919000      -0.0971221000       0.2180722000
H       -1.5220709000      -0.4228086000      -0.1011569000
C       -0.4788844000      -0.6485473000      -0.3317877000
5

H       -0.4111376000      -0.3991490000      -1.4179833000
H       -0.3579642000      -1.7237795000      -0.1523051000
H        0.2927030000      -0.0932204000       0.2344925000
H       -1.5286093000      -0.4147435000      -0.0958229000
C       -0.4773538000      -0.6504653000      -0.3362417000
5

H       -0.4193518000      -0.3948545000      -1.4023378000
H       -0.3554871000      -1.7287656000      -0.1380147000
H        0.2812446000      -0.0901860000       0.2489221000
H       -1.5292301000      -0.4027471000      -0.0832123000
C       -0.4762611000      -0.6522151000      -0.3413677000
5

H       -0.4208270000      -0.3945945000      -1.3881377000
H       -0.3510656000      -1.7308651000      -0.1289046000
H        0.2610453000      -0.0889223000       0.2592651000
H       -1.5212937000      -0.3889397000      -0.0649966000
C       -0.4758825000      -0.6538719000      -0.3460647000
5

H       -0.4151535000      -0.3966380000      -1.3831971000
H       -0.3454778000      -1.7286584000      -0.1258543000
H        0.2352004000      -0.0888458000       0.2652198000
H       -1.5050691000      -0.3752039000      -0.0431675000
C       -0.4764244000      -0.6555913000      -0.3494099000
5

H       -0.4028964000      -0.3997636000      -1.3908103000
H       -0.3392950000      -1.7228980000      -0.1287808000
H        0.2090234000      -0.0881514000       0.2681074000
H       -1.4838410000      -0.3628767000      -0.0197711000
C       -0.4779617000      -0.6574525000      -0.3510727000
5

H       -0.3856769000      -0.4039378000      -1.4073561000
H       -0.3327946000      -1.7163128000      -0.1366461000
H        0.1885260000      -0.0847131000       0.2699615000
H       -1.4630680000      -0.3526625000       0.0033130000
C       -0.4803813000      -0.6593482000      -0.3514575000
5

H       -0.3659929000      -0.4098516000      -1.4246522000
H       -0.3260288000      -1.7124297000      -0.1477751000
H        0.1782856000      -0.0774855000       0.2720393000
H       -1.4485534000      -0.3448492000       0.0243892000
C       -0.4833660000      -0.6609880000      -0.3513553000
5

H       -0.3467159000      -0.4179401000      -1.4347050000
H       -0.3190539000      -1.7137459000      -0.1603627000
H        0.1797232000      -0.0676028000       0.2736846000
H       -1.4440811000      -0.3397712000       0.0417049000
C       -0.4864716000      -0.6620018000      -0.3513868000
5

H       -0.3304603000      -0.4277970000      -1.4332015000
H       -0.3122068000      -1.7202036000      -0.1729067000
H        0.1909228000      -0.0581916000       0.2725790000
H       -1.4498179000      -0.3381762000       0.0532224000
C       -0.4892751000      -0.6621033000      -0.3516744000
5

H       -0.3190751000      -0.4381171000      -1.4208198000
H       -0.3062078000      -1.7290751000      -0.1843495000
H        0.2079468000      -0.0529555000       0.2661892000
H       -1.4625932000      -0.3410927000       0.0568361000
C       -0.4914966000      -0.6612338000      -0.3518605000
5

H       -0.3133675000      -0.4469694000      -1.4029355000
H       -0.3019709000      -1.7363920000      -0.1939751000
H        0.2265952000      -0.0545710000       0.2532599000
H       -1.4777216000      -0.3492580000       0.0510572000
C       -0.4930321000      -0.6596021000      -0.3513235000
5

H       -0.3131730000      -0.4523402000      -1.3877296000
H       -0.3002530000      -1.7388986000      -0.2012809000
H        0.2437769000      -0.0636820000       0.2345860000
H       -1.4910866000      -0.3625474000       0.0357325000
C       -0.4939180000      -0.6576071000      -0.3494723000
5

H       -0.3178610000      -0.4529387000      -1.3824178000
H       -0.3013545000      -1.7354663000      -0.2059422000
H        0.2582610000      -0.0786198000       0.2130085000
H       -1.5005637000      -0.3797227000       0.0124011000
C       -0.4942572000      -0.6556962000      -0.3460960000
5

H       -0.3269631000      -0.4489253000      -1.3891134000
H       -0.3049941000      -1.7275707000      -0.2078515000
H        0.2707203000      -0.0957977000       0.1927561000
H       -1.5064963000      -0.3985517000      -0.0158448000
C       -0.4941404000      -0.6542204000      -0.3416409000
5

H       -0.3402599000      -0.4419605000      -1.4036887000
H       -0.3103814000      -1.7188106000      -0.2071636000
H        0.2828506000      -0.1108279000       0.1781866000
H       -1.5111410000      -0.4162546000      -0.0449812000
C       -0.4936054000      -0.6533403000      -0.3371447000
5

H       -0.3572483000      -0.4344594000      -1.4186819000
H       -0.3164808000      -1.7134818000      -0.2043059000
H        0.2956427000      -0.1201746000       0.1722297000
H       -1.5171171000      -0.4301783000      -0.0709788000
C       -0.4926446000      -0.6530117000      -0.3337826000
5

H       -0.3766746000      -0.4286336000      -1.4273869000
H       -0.3223907000      -1.7145168000      -0.1999514000
H        0.3078387000      -0.1225251000       0.1753133000
H       -1.5254930000      -0.4384833000      -0.0906442000
C       -0.4912433000      -0.6530673000      -0.3323656000
5

H       -0.3965517000      -0.4258454000      -1.4264729000
H       -0.3276461000      -1.7218405000      -0.1949578000
H        0.3159406000      -0.1189552000       0.1854782000
H       -1.5347670000      -0.4405230000      -0.1020079000
C       -0.4894400000      -0.6533629000      -0.3331019000
5

H       -0.4145120000      -0.4263251000      -1.4168929000
H       -0.3322454000      -1.7323412000      -0.1902512000
H        0.3158816000      -0.1119303000       0.1994816000
H       -1.5415226000      -0.4367760000      -0.1042613000
C       -0.4873792000      -0.6538933000      -0.3356293000
5

H       -0.4282707000      -0.4291779000      -1.4035874000
H       -0.3364134000      -1.7415223000      -0.1866406000
H        0.3050239000      -0.1039839000       0.2140990000
H       -1.5421887000      -0.4284723000      -0.0975350000
C       -0.4853124000      -0.6547951000      -0.3391832000
5

H       -0.4360869000      -0.4327303000      -1.3937773000
H       -0.3403008000      -1.7456757000      -0.1846104000
H        0.2834033000      -0.0967566000       0.2270651000
H       -1.5347107000      -0.4171590000      -0.0827272000
C       -0.4835486000      -0.6562526000      -0.3428509000
5

H       -0.4371227000      -0.4352776000      -1.3935149000
H       -0.3437891000      -1.7434402000      -0.1841663000
H        0.2540102000      -0.0905665000       0.2375317000
H       -1.5194543000      -0.4043555000      -0.0613826000
C       -0.4823884000      -0.6583691000      -0.3459226000
5

H       -0.4315950000      -0.4359343000      -1.4039376000
H       -0.3464389000      -1.7363367000      -0.1847917000
H        0.2221820000      -0.0845192000       0.2460112000
H       -1.4992519000      -0.3913426000      -0.0355505000
C       -0.4820611000      -0.6610589000      -0.3482172000
5

H       -0.4206998000      -0.4349362000      -1.4203562000
H       -0.3475738000      -1.7282154000      -0.1855661000
H        0.1941444000      -0.0772382000       0.2536757000
H       -1.4786188000      -0.3791163000      -0.0076102000
C       -0.4826666000      -0.6640108000      -0.3501045000
5

H       -0.4063399000      -0.4331842000      -1.4351435000
H       -0.3464989000      -1.7235794000      -0.1854688000
H        0.1750105000      -0.0680866000       0.2611389000
H       -1.4622338000      -0.3685143000       0.0198550000
C       -0.4841401000      -0.6667542000      -0.3521454000
5

H       -0.3907222000      -0.4315487000      -1.4417720000
H       -0.3428186000      -1.7252065000      -0.1838000000
H        0.1671961000      -0.0581575000       0.2674846000
H       -1.4531983000      -0.3604511000       0.0440974000
C       -0.4862721000      -0.6688139000      -0.3546394000
5

H       -0.3759214000      -0.4304108000      -1.4374567000
H       -0.3367077000      -1.7324122000      -0.1805159000
H        0.1701597000      -0.0501612000       0.2704150000
H       -1.4520227000      -0.3560131000       0.0623062000
C       -0.4887850000      -0.6698967000      -0.3573948000
5

H       -0.3635151000      -0.4295088000      -1.4240116000
H       -0.3289406000      -1.7413611000      -0.1762607000
H        0.1813694000      -0.0472316000       0.2674440000
H       -1.4569411000      -0.3562381000       0.0719713000
C       -0.4914169000      -0.6699965000      -0.3597857000
5

H       -0.3543800000      -0.4280435000      -1.4072244000
H       -0.3206389000      -1.7472174000      -0.1720882000
H        0.1976442000      -0.0515361000       0.2572161000
H       -1.4651812000      -0.3616842000       0.0714735000
C       -0.4939653000      -0.6693575000      -0.3609875000
5

H       -0.3487715000      -0.4251179000      -1.3945636000
H       -0.3129042000      -1.7465682000      -0.1690727000
H        0.2162278000      -0.0633886000       0.2402577000
H       -1.4743496000      -0.3720597000       0.0606242000
C       -0.4962858000      -0.6683398000      -0.3603110000
5

H       -0.3467330000      -0.4204875000      -1.3914334000
H       -0.3065194000      -1.7389204000      -0.1679995000
H        0.2354168000      -0.0810240000       0.2190193000
H       -1.4833314000      -0.3861103000       0.0408920000
C       -0.4982596000      -0.6672588000      -0.3575656000
5

H       -0.3485126000      -0.4151454000      -1.3981013000
H       -0.3018031000      -1.7269974000      -0.1692221000
H        0.2546603000      -0.1009953000       0.1972854000
H       -1.4924550000      -0.4018108000       0.0151800000
C       -0.4997654000      -0.6662621000      -0.3532608000
5

H       -0.3545031000      -0.4111114000      -1.4099293000
H       -0.2986525000      -1.7158292000      -0.1726957000
H        0.2740086000      -0.1191706000       0.1790678000
H       -1.5028383000      -0.4168287000      -0.0128313000
C       -0.5006893000      -0.6653002000      -0.3484359000
5

H       -0.3647575000      -0.4105049000      -1.4205297000
H       -0.2968123000      -1.7106359000      -0.1781764000
H        0.2930280000      -0.1320887000       0.1673299000
H       -1.5151412000      -0.4291271000      -0.0395387000
C       -0.5009564000      -0.6642186000      -0.3441994000
5

H       -0.3785931000      -0.4146296000      -1.4250524000
H       -0.2962726000      -1.7141444000      -0.1854536000
H        0.3098786000      -0.1380500000       0.1631517000
H       -1.5284670000      -0.4374418000      -0.0620660000
C       -0.5005456000      -0.6629277000      -0.3413085000
5

H       -0.3945622000      -0.4235171000      -1.4219598000
H       -0.2974854000      -1.7249957000      -0.1944032000
H        0.3214009000      -0.1373294000       0.1657628000
H       -1.5402667000      -0.4414140000      -0.0784516000
C       -0.4994893000      -0.6615458000      -0.3400025000
5

H       -0.4106974000      -0.4359144000      -1.4133811000
H       -0.3011546000      -1.7385427000      -0.2047849000
H        0.3242697000      -0.1315388000       0.1732603000
H       -1.5473598000      -0.4413843000      -0.0875045000
C       -0.4978814000      -0.6604045000      -0.3400630000
5

H       -0.4249099000      -0.4496105000      -1.4043046000
H       -0.3077496000      -1.7493593000      -0.2159742000
H        0.3164269000      -0.1226706000       0.1834987000
H       -1.5473572000      -0.4380504000      -0.0886315000
C       -0.4958857000      -0.6599188000      -0.3409931000
5

H       -0.4354453000      -0.4620590000      -1.4004525000
H       -0.3171167000      -1.7536926000      -0.2268597000
H        0.2980466000      -0.1123229000       0.1947696000
H       -1.5396910000      -0.4321783000      -0.0817841000
C       -0.4937250000      -0.6604196000      -0.3422662000
5

H       -0.4412629000      -0.4711232000      -1.4052013000
H       -0.3283642000      -1.7508313000      -0.2359513000
H        0.2717475000      -0.1013061000       0.2061565000
H       -1.5259142000      -0.4244456000      -0.0675019000
C       -0.4916509000      -0.6620216000      -0.3436019000
5

H       -0.4421900000      -0.4755979000      -1.4173991000
H       -0.3399910000      -1.7432990000      -0.2416238000
H        0.2420220000      -0.0897019000       0.2174992000
H       -1.5092394000      -0.4154330000      -0.0469746000
C       -0.4899116000      -0.6645584000      -0.3451200000
5

H       -0.4388142000      -0.4752622000      -1.4319643000
H       -0.3502060000      -1.7358811000      -0.2424292000
H        0.2139777000      -0.0773984000       0.2289100000
H       -1.4934242000      -0.4057533000      -0.0220901000
C       -0.4887214000      -0.6676048000      -0.3472201000
5

H       -0.4322327000      -0.4705873000      -1.4427181000
H       -0.3573806000      -1.7334367000      -0.2374382000
H        0.1918123000      -0.0648859000       0.2400262000
H       -1.4813723000      -0.3962504000       0.0045677000
C       -0.4882337000      -0.6706011000      -0.3502516000
5

H       -0.4237638000      -0.4623867000      -1.4452743000
H       -0.3604974000      -1.7381430000      -0.2265705000
H        0.1777935000      -0.0537523000       0.2495333000
H       -1.4741559000      -0.3881029000       0.0298612000
C       -0.4885236000      -0.6730637000      -0.3542157000
5

H       -0.4146762000      -0.4515331000      -1.4386909000
H       -0.3593734000      -1.7479698000      -0.2108112000
H        0.1722196000      -0.0463969000       0.2554127000
H       -1.4710381000      -0.3826702000       0.0504937000
C       -0.4895869000      -0.6747740000      -0.3586624000
5

H       -0.4059732000      -0.4387604000      -1.4257814000
H       -0.3545416000      -1.7577622000      -0.1921578000
H        0.1741148000      -0.0451148000       0.2557785000
H       -1.4703709000      -0.3810912000       0.0636312000
C       -0.4913510000      -0.6758147000      -0.3627913000
5

H       -0.3982873000      -0.4246318000      -1.4120659000
H       -0.3469268000      -1.7620715000      -0.1732328000
H        0.1820602000      -0.0511450000       0.2497473000
H       -1.4707277000      -0.3838616000       0.0675484000
C       -0.4936856000      -0.6764505000      -0.3656994000
5

H       -0.3919599000      -0.4098181000      -1.4032787000
H       -0.3375113000      -1.7577610000      -0.1566996000
H        0.1947754000      -0.0641219000       0.2379039000
H       -1.4717138000      -0.3905856000       0.0620638000
C       -0.4964053000      -0.6769522000      -0.3667153000
5

H       -0.3872809000      -0.3956152000      -1.4023181000
H       -0.3271031000      -1.7453527000      -0.1447043000
H        0.2113354000      -0.0820545000       0.2222338000
H       -1.4742067000      -0.3999943000       0.0486030000
C       -0.4992667000      -0.6774412000      -0.3657017000
5

H       -0.3846738000      -0.3841916000      -1.4077793000
H       -0.3162266000      -1.7290330000      -0.1385119000
H        0.2310074000      -0.1018132000       0.2055537000
H       -1.4799007000      -0.4102506000       0.0298211000
C       -0.5019861000      -0.6778009000      -0.3631299000
5

H       -0.3846062000      -0.3781139000      -1.4152861000
H       -0.3051834000      -1.7152639000      -0.1384692000
H        0.2527501000      -0.1200152000       0.1906303000
H       -1.4901833000      -0.4195029000       0.0088321000
C       -0.5042950000      -0.6777127000      -0.3598321000
5

H       -0.3873127000      -0.3794043000      -1.4202856000
H       -0.2943697000      -1.7099761000      -0.1443432000
H        0.2746755000      -0.1339869000       0.1793695000
H       -1.5048125000      -0.4264866000      -0.0116293000
C       -0.5060021000      -0.6768394000      -0.3566001000
5

H       -0.3925856000      -0.3887702000      -1.4202720000
H       -0.2847253000      -1.7153934000      -0.1557920000
H        0.2939339000      -0.1423591000       0.1724724000
H       -1.5213331000      -0.4308468000      -0.0296648000
C       -0.5070127000      -0.6750794000      -0.3538913000
5

H       -0.3997474000      -0.4053279000      -1.4156833000
H       -0.2778741000      -1.7287521000      -0.1724708000
H        0.3072824000      -0.1450583000       0.1696434000
H       -1.5358200000      -0.4329987000      -0.0441422000
C       -0.5073046000      -0.6727103000      -0.3517679000
5

H       -0.4077814000      -0.4268208000      -1.4095927000
H       -0.2756500000      -1.7440263000      -0.1936342000
H        0.3120757000      -0.1428384000       0.1700986000
H       -1.5444888000      -0.4336952000      -0.0543603000
C       -0.5069050000      -0.6703011000      -0.3500275000
5

H       -0.4155708000      -0.4501902000      -1.4062896000
H       -0.2793192000      -1.7551319000      -0.2177011000
H        0.3071828000      -0.1366929000       0.1730562000
H       -1.5452101000      -0.4335980000      -0.0597865000
C       -0.5058853000      -0.6684806000      -0.3484215000
5

H       -0.4221974000      -0.4723179000      -1.4090149000
H       -0.2890268000      -1.7584650000      -0.2422059000
H        0.2934532000      -0.1274178000       0.1780446000
H       -1.5383061000      -0.4330219000      -0.0599856000
C       -0.5043548000      -0.6677195000      -0.3468819000
5

H       -0.4271658000      -0.4906002000      -1.4179725000
H       -0.3036584000      -1.7540476000      -0.2641341000
H        0.2735688000      -0.1154802000       0.1849533000
H       -1.5264614000      -0.4318926000      -0.0547106000
C       -0.5024480000      -0.6682024000      -0.3456562000
5

H       -0.4304349000      -0.5031399000      -1.4300920000
H       -0.3210498000      -1.7454451000      -0.2804475000
H        0.2512593000      -0.1012506000       0.1937991000
H       -1.5137379000      -0.4299071000      -0.0441081000
C       -0.5003224000      -0.6697837000      -0.3452467000
5

H       -0.4322745000      -0.5087286000      -1.4407217000
H       -0.3384862000      -1.7384433000      -0.2886278000
H        0.2301152000      -0.0855161000       0.2042696000
H       -1.5038928000      -0.4268581000      -0.0289938000
C       -0.4981696000      -0.6720303000      -0.3461610000
5

H       -0.4330749000      -0.5068351000      -1.4458858000
H       -0.3534187000      -1.7383575000      -0.2871236000
H        0.2125637000      -0.0699217000       0.2153319000
H       -1.4987278000      -0.4229782000      -0.0110601000
C       -0.4962234000      -0.6743828000      -0.3486344000
5

H       -0.4331957000      -0.4976180000      -1.4438665000
H       -0.3641111000      -1.7468751000      -0.2756541000
H        0.1995562000      -0.0569081000       0.2252650000
H       -1.4975065000      -0.4190507000       0.0072003000
C       -0.4947412000      -0.6764155000      -0.3524810000
5

H       -0.4328722000      -0.4818782000      -1.4357899000
H       -0.3698659000      -1.7606961000      -0.2553738000
H        0.1910087000      -0.0490497000       0.2321825000
H       -1.4977988000      -0.4161629000       0.0229703000
C       -0.4939587000      -0.6780307000      -0.3571142000
5

H       -0.4321881000      -0.4609294000      -1.4252046000
H       -0.3707891000      -1.7733045000      -0.2288271000
H        0.1865249000      -0.0481792000       0.2347367000
H       -1.4970537000      -0.4152568000       0.0338114000
C       -0.4940409000      -0.6794321000      -0.3617043000
5

H       -0.4311140000      -0.4365122000      -1.4165557000
H       -0.3674012000      -1.7784006000      -0.1995503000
H        0.1859454000      -0.0547513000       0.2326318000
H       -1.4939347000      -0.4167292000       0.0382920000
C       -0.4950454000      -0.6809308000      -0.3654359000
5

H       -0.4296072000      -0.4108844000      -1.4129073000
H       -0.3603429000      -1.7727035000      -0.1713808000
H        0.1895285000      -0.0676551000       0.2267473000
H       -1.4889557000      -0.4202345000       0.0363403000
C       -0.4969005000      -0.6827352000      -0.3677972000
5

H       -0.4277012000      -0.3869413000      -1.4142747000
H       -0.3502055000      -1.7572380000      -0.1477024000
H        0.1977275000      -0.0845000000       0.2188245000
H       -1.4843532000      -0.4247289000       0.0292212000
C       -0.4994040000      -0.6848048000      -0.3687551000
5

H       -0.4255180000      -0.3679903000      -1.4179218000
H       -0.3374502000      -1.7371941000      -0.1308625000
H        0.2106372000      -0.1022990000       0.2108006000
H       -1.4831731000      -0.4287831000       0.0191078000
C       -0.5022591000      -0.6867967000      -0.3686873000
5

H       -0.4231952000      -0.3570543000      -1.4203112000
H       -0.3224681000      -1.7202349000      -0.1219780000
H        0.2273511000      -0.1183260000       0.2040704000
H       -1.4877269000      -0.4311358000       0.0083227000
C       -0.5051511000      -0.6881483000      -0.3681096000
5

H       -0.4208034000      -0.3560452000      -1.4191747000
H       -0.3059019000      -1.7131587000      -0.1213023000
H        0.2456617000      -0.1307734000       0.1990714000
H       -1.4981037000      -0.4312653000      -0.0014283000
C       -0.5078273000      -0.6883236000      -0.3673710000
5

H       -0.4183149000      -0.3652275000      -1.4146470000
H       -0.2891481000      -1.7182589000      -0.1288956000
H        0.2624216000      -0.1389307000       0.1954029000
H       -1.5117639000      -0.4296239000      -0.0094034000
C       -0.5101217000      -0.6871295000      -0.3664839000
5

H       -0.4156374000      -0.3831825000      -1.4092401000
H       -0.2745337000      -1.7321287000      -0.1448298000
H        0.2744409000      -0.1429122000       0.1923235000
H       -1.5246075000      -0.4273708000      -0.0156167000
C       -0.5119229000      -0.6848644000      -0.3651677000
5

H       -0.4127124000      -0.4072798000      -1.4066764000
H       -0.2647646000      -1.7479579000      -0.1686304000
H        0.2794833000      -0.1431836000       0.1892861000
H       -1.5327969000      -0.4258079000      -0.0203732000
C       -0.5131431000      -0.6821728000      -0.3630781000
5

H       -0.4096641000      -0.4344563000      -1.4098293000
H       -0.2619851000      -1.7591794000      -0.1986166000
H        0.2769621000      -0.1401327000       0.1862835000
H       -1.5343004000      -0.4258665000      -0.0238683000
C       -0.5137131000      -0.6797528000      -0.3600979000
5

H       -0.4069329000      -0.4618407000      -1.4188096000
H       -0.2670599000      -1.7620889000      -0.2317783000
H        0.2681314000      -0.1338448000       0.1839186000
H       -1.5296156000      -0.4278315000      -0.0259929000
C       -0.5135871000      -0.6781249000      -0.3565304000
5

H       -0.4052414000      -0.4869081000      -1.4306641000
H       -0.2793150000      -1.7568932000      -0.2641928000
H        0.2556699000      -0.1241999000       0.1831657000
H       -1.5215689000      -0.4313366000      -0.0263680000
C       -0.5127483000      -0.6775248000      -0.3530667000
5

H       -0.4053733000      -0.5073274000      -1.4409844000
H       -0.2966745000      -1.7475317000      -0.2917125000
H        0.2426921000      -0.1113113000       0.1848628000
H       -1.5141634000      -0.4355919000      -0.0245981000
C       -0.5112304000      -0.6778745000      -0.3505290000
5

H       -0.4078814000      -0.5209403000      -1.4461221000
H       -0.3161834000      -1.7402497000      -0.3106951000
H        0.2315558000      -0.0961106000       0.1891394000
H       -1.5107429000      -0.4397941000      -0.0206611000
C       -0.5091524000      -0.6788198000      -0.3495423000
5

H       -0.4128931000      -0.5260116000      -1.4446805000
H       -0.3348528000      -1.7407313000      -0.3185977000
H        0.2231308000      -0.0806380000       0.1951562000
H       -1.5123363000      -0.4435090000      -0.0152209000
C       -0.5067415000      -0.6798944000      -0.3503114000
5

H       -0.4200588000      -0.5215743000      -1.4379188000
H       -0.3504704000      -1.7507520000      -0.3143226000
H        0.2169455000      -0.0676725000       0.2013904000
H       -1.5172781000      -0.4467810000      -0.0095820000
C       -0.5043134000      -0.6807933000      -0.3525853000
5

H       -0.0720991000       0.6056546000      -0.1380030000
H        0.7288150000      -0.6920053000      -0.5571367000
H       -0.8350627000      -0.7611664000       0.5319215000
H       -0.7568891000      -0.6350549000      -1.3472650000
C       -0.3271322000      -0.3691041000      -0.3635251000
5

H       -0.1541997000       0.6335400000      -0.1381970000
H        0.6495725000      -0.7515763000      -0.5907596000
H       -0.8254499000      -0.7527060000       0.4886281000
H       -0.7349490000      -0.6333444000      -1.3398405000
C       -0.3164977000      -0.3675879000      -0.3578667000
5

H       -0.2376172000       0.6939607000      -0.1426164000
H        0.5889018000      -0.8232379000      -0.6104458000
H       -0.8213460000      -0.7604914000       0.4542778000
H       -0.7287632000      -0.6207385000      -1.3272825000
C       -0.3055264000      -0.3673390000      -0.3542062000
5

H       -0.3164146000       0.7603242000      -0.1546557000
H        0.5646877000      -0.9048756000      -0.6172606000
H       -0.8302068000      -0.7887155000       0.4394426000
H       -0.7427271000      -0.5987344000      -1.3141591000
C       -0.2952238000      -0.3658237000      -0.3526732000
5

H       -0.3832388000       0.8073800000      -0.1752299000
H        0.5741306000      -0.9872239000      -0.6107884000
H       -0.8507240000      -0.8328040000       0.4410549000
H       -0.7770860000      -0.5694406000      -1.3032427000
C       -0.2860615000      -0.3619065000      -0.3527355000
5

H       -0.4312461000       0.8215780000      -0.2018881000
H        0.6002412000      -1.0545823000      -0.5898260000
H       -0.8740676000      -0.8813267000       0.4466390000
H       -0.8269427000      -0.5354324000      -1.2936757000
C       -0.2783403000      -0.3565117000      -0.3537239000
5

H       -0.4556125000       0.8004928000      -0.2301267000
H        0.6261766000      -1.0927005000      -0.5555341000
H       -0.8908453000      -0.9223339000       0.4447426000
H       -0.8836174000      -0.5000422000      -1.2820627000
C       -0.2725688000      -0.3513562000      -0.3552429000
5

H       -0.4540757000       0.7516545000      -0.2544432000
H        0.6413873000      -1.0935193000      -0.5119031000
H       -0.8954634000      -0.9475096000       0.4299663000
H       -0.9375098000      -0.4673667000      -1.2654034000
C       -0.2693269000      -0.3481040000      -0.3572182000
5

H       -0.4275336000       0.6937298000      -0.2689400000
H        0.6421576000      -1.0559461000      -0.4646461000
H       -0.8868937000      -0.9531891000       0.4030334000
H       -0.9807096000      -0.4416112000      -1.2433469000
C       -0.2689777000      -0.3483693000      -0.3597552000
5

H       -0.3799452000       0.6548961000      -0.2680944000
H        0.6322666000      -0.9864112000      -0.4202449000
H       -0.8685319000      -0.9405759000       0.3702213000
H       -1.0082784000      -0.4260160000      -1.2186478000
C       -0.2716357000      -0.3536049000      -0.3630690000
5

H       -0.3160131000       0.6567760000      -0.2485303000
H        0.6248330000      -0.8996332000      -0.3849725000
H       -0.8481356000      -0.9161670000       0.3433522000
H       -1.0184007000      -0.4219487000      -1.1965010000
C       -0.2775086000      -0.3637304000      -0.3674728000
5

H       -0.2404974000       0.6925073000      -0.2117064000
H        0.6395839000      -0.8148646000      -0.3633287000
H       -0.8360940000      -0.8905829000       0.3379595000
H       -1.0123507000      -0.4286322000      -1.1837413000
C       -0.2868741000      -0.3757258000      -0.3731973000
5

H       -0.1616151000       0.7342408000      -0.1644360000
H        0.6865684000      -0.7447257000      -0.3569435000
H       -0.8391010000      -0.8725987000       0.3652398000
H       -0.9944437000      -0.4436082000      -1.1877900000
C       -0.2989617000      -0.3856618000      -0.3798506000
5

H       -0.0904908000       0.7581812000      -0.1157315000
H        0.7516183000      -0.6902666000      -0.3653089000
H       -0.8532530000      -0.8622578000       0.4212249000
H       -0.9703630000      -0.4636895000      -1.2139796000
C       -0.3114971000      -0.3917160000      -0.3859368000
5

H       -0.0371500000       0.7534551000      -0.0736391000
H        0.8086621000      -0.6491578000      -0.3865354000
H       -0.8669609000      -0.8529681000       0.4876103000
H       -0.9432453000      -0.4857414000      -1.2610492000
C       -0.3221586000      -0.3939876000      -0.3895074000
5

H       -0.0084190000       0.7192464000      -0.0439508000
H        0.8383946000      -0.6214150000      -0.4174918000
H       -0.8699440000      -0.8390463000       0.5438886000
H       -0.9116410000      -0.5067321000      -1.3188585000
C       -0.3297367000      -0.3931386000      -0.3894683000
5

H       -0.0073260000       0.6623520000      -0.0297284000
H        0.8330621000      -0.6088220000      -0.4542515000
H       -0.8574851000      -0.8192206000       0.5760295000
H       -0.8724613000      -0.5236533000      -1.3722393000
C       -0.3339811000      -0.3899495000      -0.3859879000
5

H       -0.0321870000       0.5982896000      -0.0304018000
H        0.7946019000      -0.6133961000      -0.4926025000
H       -0.8302023000      -0.7963855000       0.5785318000
H       -0.8251102000      -0.5339081000      -1.4076566000
C       -0.3351942000      -0.3855293000      -0.3801424000
5

H       -0.0755579000       0.5534351000      -0.0405497000
H        0.7335078000      -0.6365706000      -0.5285257000
H       -0.7933423000      -0.7768438000       0.5546785000
H       -0.7731613000      -0.5358840000      -1.4176349000
C       -0.3341420000      -0.3815785000      -0.3736283000
5

H       -0.1267933000       0.5571327000      -0.0521054000
H        0.6685066000      -0.6788729000      -0.5589165000
H       -0.7565571000      -0.7697599000       0.5171013000
H       -0.7241265000      -0.5294917000      -1.4026421000
C       -0.3318499000      -0.3797552000      -0.3684052000
5

H       -0.1792252000       0.6157251000      -0.0626370000
H        0.6221511000      -0.7395192000      -0.5821633000
H       -0.7322053000      -0.7852557000       0.4852264000
H       -0.6884210000      -0.5165662000      -1.3718844000
C       -0.3288594000      -0.3796538000      -0.3656713000
5

H       -0.2309967000       0.7017492000      -0.0774012000
H        0.6082853000      -0.8143420000      -0.5971155000
H       -0.7293633000      -0.8285761000       0.4734833000
H       -0.6771347000      -0.5004732000      -1.3418104000
C       -0.3247958000      -0.3785944000      -0.3649116000
5

H       -0.2796469000       0.7794366000      -0.1007685000
H        0.6221367000      -0.8929732000      -0.6015049000
H       -0.7471679000      -0.8932737000       0.4780694000
H       -0.6977277000      -0.4845612000      -1.3281695000
C       -0.3189105000      -0.3747041000      -0.3643075000
5

H       -0.3212724000       0.8252698000      -0.1321684000
H        0.6470106000      -0.9608831000      -0.5932519000
H       -0.7765427000      -0.9631562000       0.4821699000
H       -0.7489238000      -0.4706851000      -1.3334671000
C       -0.3109986000      -0.3684325000      -0.3624590000
5

H       -0.3520817000       0.8293970000      -0.1677970000
H        0.6670262000      -1.0051735000      -0.5726733000
H       -0.8074145000      -1.0214210000       0.4713976000
H       -0.8196323000      -0.4593669000      -1.3447486000
C       -0.3018226000      -0.3614026000      -0.3595393000
5

H       -0.3692005000       0.7928346000      -0.2024156000
H        0.6727605000      -1.0180247000      -0.5426130000
H       -0.8327696000      -1.0564719000       0.4401301000
H       -0.8941713000      -0.4509982000      -1.3457275000
C       -0.2927387000      -0.3552978000      -0.3566451000
5

H       -0.3712743000       0.7281632000      -0.2300202000
H        0.6618609000      -0.9975248000      -0.5075691000
H       -0.8492486000      -1.0629455000       0.3903710000
H       -0.9584883000      -0.4463327000      -1.3271186000
C       -0.2851250000      -0.3517220000      -0.3548507000
5

H       -0.3593165000       0.6626961000      -0.2441168000
H        0.6396711000      -0.9484543000      -0.4730647000
H       -0.8571899000      -1.0417686000       0.3301938000
H       -1.0029800000      -0.4461313000      -1.2884008000
C       -0.2801233000      -0.3524259000      -0.3549597000
5

H       -0.3365246000       0.6323398000      -0.2388249000
H        0.6209581000      -0.8833993000      -0.4450537000
H       -0.8614046000      -1.0011099000       0.2736792000
H       -1.0229471000      -0.4506479000      -1.2361308000
C       -0.2786959000      -0.3586606000      -0.3575974000
5

H       -0.3059768000       0.6531971000      -0.2119874000
H        0.6273569000      -0.8200826000      -0.4284341000
H       -0.8714628000      -0.9563568000       0.2402195000
H       -1.0191040000      -0.4593718000      -1.1827532000
C       -0.2815374000      -0.3690405000      -0.3631174000
5

H       -0.2703523000       0.7039686000      -0.1681956000
H        0.6710760000      -0.7706452000      -0.4247289000
H       -0.8964952000      -0.9232945000       0.2476915000
H       -0.9989306000      -0.4711700000      -1.1459592000
C       -0.2880534000      -0.3795267000      -0.3710216000
5

H       -0.2339378000       0.7509592000      -0.1170342000
H        0.7383742000      -0.7344714000      -0.4316035000
H       -0.9337160000      -0.9056882000       0.2987494000
H       -0.9755168000      -0.4848269000      -1.1448960000
C       -0.2958643000      -0.3871266000      -0.3793156000
5

H       -0.2018430000       0.7720680000      -0.0685765000
H        0.8010536000      -0.7057957000      -0.4450573000
H       -0.9671632000      -0.8946479000       0.3764581000
H       -0.9583370000      -0.4991559000      -1.1887132000
C       -0.3027173000      -0.3913152000      -0.3852987000
5

H       -0.1783133000       0.7589383000      -0.0307385000
H        0.8371566000      -0.6815310000      -0.4612975000
H       -0.9807521000      -0.8804020000       0.4566089000
H       -0.9437394000      -0.5120800000      -1.2657514000
C       -0.3080697000      -0.3926451000      -0.3875706000
5

H       -0.1661108000       0.7133638000      -0.0085023000
H        0.8370073000      -0.6619110000      -0.4772826000
H       -0.9665330000      -0.8588489000       0.5195581000
H       -0.9206959000      -0.5206881000      -1.3501302000
C       -0.3124706000      -0.3918362000      -0.3864926000
5

H       -0.1661528000       0.6467103000      -0.0032636000
H        0.8015460000      -0.6491687000      -0.4907935000
H       -0.9243636000      -0.8311663000       0.5536990000
H       -0.8822038000      -0.5226075000      -1.4175243000
C       -0.3165215000      -0.3897560000      -0.3832023000
5

H       -0.1767552000       0.5820517000      -0.0115230000
H        0.7415754000      -0.6468277000      -0.5005957000
H       -0.8600969000      -0.8023597000       0.5556903000
H       -0.8285545000      -0.5168142000      -1.4528789000
C       -0.3207557000      -0.3877118000      -0.3790806000
5

H       -0.1934178000       0.5514130000      -0.0251589000
H        0.6781419000      -0.6592900000      -0.5067676000
H       -0.7851749000      -0.7807888000       0.5317683000
H       -0.7657465000      -0.5038236000      -1.4510489000
C       -0.3258540000      -0.3872780000      -0.3757594000
5

H       -0.2114005000       0.5757080000      -0.0380130000
H        0.6376385000      -0.6903460000      -0.5104993000
H       -0.7162435000      -0.7779154000       0.4998553000
H       -0.7040630000      -0.4859374000      -1.4172049000
C       -0.3321695000      -0.3887368000      -0.3747265000
5

H       -0.2289034000       0.6428318000      -0.0525672000
H        0.6357459000      -0.7390875000      -0.5123434000
H       -0.6703644000      -0.8050407000       0.4842755000
H       -0.6571785000      -0.4673448000      -1.3693459000
C       -0.3385891000      -0.3898469000      -0.3762581000
5

H       -0.2459938000       0.7198520000      -0.0744239000
H        0.6648106000      -0.7965284000      -0.5108880000
H       -0.6550963000      -0.8640770000       0.4953171000
H       -0.6394652000      -0.4531678000      -1.3374008000
C       -0.3426222000      -0.3880065000      -0.3783528000
5

H       -0.2625154000       0.7783798000      -0.1051618000
H        0.7034139000      -0.8491696000      -0.5045129000
H       -0.6654766000      -0.9417652000       0.5177711000
H       -0.6590041000      -0.4472918000      -1.3449455000
C       -0.3422210000      -0.3827522000      -0.3777568000
5

H       -0.2778428000       0.8028291000      -0.1422494000
H        0.7323638000      -0.8854409000      -0.4932366000
H       -0.6917710000      -1.0179153000       0.5287206000
H       -0.7104714000      -0.4506667000      -1.3837679000
C       -0.3370911000      -0.3753624000      -0.3734463000
5

H       -0.2911688000       0.7889561000      -0.1810370000
H        0.7405407000      -0.8984379000      -0.4785577000
H       -0.7255944000      -1.0757962000       0.5143426000
H       -0.7782226000      -0.4617821000      -1.4232892000
C       -0.3283846000      -0.3675922000      -0.3670935000
5

H       -0.3017645000       0.7433632000      -0.2158837000
H        0.7248134000      -0.8860579000      -0.4627731000
H       -0.7610814000      -1.1052663000       0.4714343000
H       -0.8458640000      -0.4782175000      -1.4385037000
C       -0.3177694000      -0.3612282000      -0.3608104000
5

H       -0.3094112000       0.6856650000      -0.2406723000
H        0.6903482000      -0.8513626000      -0.4486728000
H       -0.7946911000      -1.1025487000       0.4045045000
H       -0.9011640000      -0.4975379000      -1.4189584000
C       -0.3070224000      -0.3581824000      -0.3561327000
5

H       -0.3149963000       0.6465999000      -0.2497605000
H        0.6527844000      -0.8037637000      -0.4394713000
H       -0.8256499000      -1.0707358000       0.3246345000
H       -0.9363727000      -0.5174822000      -1.3656155000
C       -0.2980983000      -0.3601761000      -0.3541144000
5

H       -0.3203822000       0.6495300000      -0.2401138000
H        0.6374825000      -0.7581432000      -0.4383051000
H       -0.8574667000      -1.0214471000       0.2498894000
H       -0.9482064000      -0.5360156000      -1.2883306000
C       -0.2929514000      -0.3671166000      -0.3554360000
5

H       -0.3269182000       0.6878479000      -0.2134840000
H        0.6641915000      -0.7267396000      -0.4463784000
H       -0.8982503000      -0.9734159000       0.2031718000
H       -0.9397340000      -0.5517484000      -1.2064831000
C       -0.2921882000      -0.3759647000      -0.3601453000
5

H       -0.3345776000       0.7338795000      -0.1760995000
H        0.7248910000      -0.7101063000      -0.4609778000
H       -0.9532595000      -0.9414185000       0.2016831000
H       -0.9231825000      -0.5650337000      -1.1493553000
C       -0.2936687000      -0.3830789000      -0.3669323000
5

H       -0.3425196000       0.7631088000      -0.1359299000
H        0.7903479000      -0.7013166000      -0.4767918000
H       -1.0132383000      -0.9244835000       0.2441327000
H       -0.9153070000      -0.5780711000      -1.1457726000
C       -0.2943789000      -0.3868787000      -0.3730442000
5

H       -0.3496087000       0.7631358000      -0.1001134000
H        0.8346196000      -0.6945270000      -0.4889295000
H       -1.0584736000      -0.9117580000       0.3129572000
H       -0.9200446000      -0.5909879000      -1.2001261000
C       -0.2935604000      -0.3877142000      -0.3764486000
5

H       -0.3547582000       0.7324717000      -0.0737073000
H        0.8446522000      -0.6871341000      -0.4942020000
H       -1.0729802000      -0.8947964000       0.3870263000
H       -0.9234845000      -0.5994727000      -1.2865688000
C       -0.2927185000      -0.3867508000      -0.3773847000
5

H       -0.3573427000       0.6794135000      -0.0590593000
H        0.8187811000      -0.6790479000      -0.4911177000
H       -1.0500757000      -0.8711264000       0.4494703000
H       -0.9108223000      -0.5988961000      -1.3722083000
C       -0.2935708000      -0.3852894000      -0.3771262000
5

H       -0.3575241000       0.6226478000      -0.0550261000
H        0.7654684000      -0.6723370000      -0.4797754000
H       -0.9911685000      -0.8428411000       0.4896527000
H       -0.8764018000      -0.5874116000      -1.4339256000
C       -0.2971710000      -0.3847047000      -0.3768093000
5

H       -0.3560392000       0.5882634000      -0.0571620000
H        0.7040936000      -0.6713216000      -0.4618584000
H       -0.9043917000      -0.8152355000       0.5039049000
H       -0.8222797000      -0.5658339000      -1.4599000000
C       -0.3042292000      -0.3863121000      -0.3773510000
5

H       -0.3530258000       0.5952891000      -0.0615978000
H        0.6617900000      -0.6814375000      -0.4401163000
H       -0.8046053000      -0.7964593000       0.4975857000
H       -0.7555759000      -0.5371464000      -1.4478749000
C       -0.3151670000      -0.3903180000      -0.3794851000
5

H       -0.3473306000       0.6390895000      -0.0696683000
H        0.6578879000      -0.7046245000      -0.4169831000
H       -0.7120826000      -0.7970359000       0.4870035000
H       -0.6877294000      -0.5064975000      -1.4067277000
C       -0.3290414000      -0.3948539000      -0.3835192000
5

H       -0.3379419000       0.6963580000      -0.0855421000
H        0.6876366000      -0.7348432000      -0.3941723000
H       -0.6449932000      -0.8258358000       0.4920009000
H       -0.6339783000      -0.4808828000      -1.3612145000
C       -0.3427323000      -0.3971370000      -0.3885462000
5

H       -0.3253682000       0.7433397000      -0.1109929000
H        0.7296634000      -0.7613692000      -0.3738508000
H       -0.6098658000      -0.8818050000       0.5164334000
H       -0.6088961000      -0.4672598000      -1.3478392000
C       -0.3526294000      -0.3955770000      -0.3914930000
5

H       -0.3113991000       0.7651676000      -0.1442566000
H        0.7638770000      -0.7754407000      -0.3586224000
H       -0.6030338000      -0.9519887000       0.5436671000
H       -0.6168467000      -0.4693319000      -1.3839898000
C       -0.3568367000      -0.3904379000      -0.3894317000
5

H       -0.2983603000       0.7567921000      -0.1812207000
H        0.7783043000      -0.7726916000      -0.3505415000
H       -0.6181825000      -1.0197355000       0.5541273000
H       -0.6488863000      -0.4860990000      -1.4457977000
C       -0.3554349000      -0.3831448000      -0.3828959000
5

H       -0.2886178000       0.7231325000      -0.2165230000
H        0.7686253000      -0.7527323000      -0.3506895000
H       -0.6495638000      -1.0716355000       0.5368924000
H       -0.6915327000      -0.5134687000      -1.4961236000
C       -0.3494773000      -0.3756138000      -0.3744474000
5

H       -0.2843203000       0.6803320000      -0.2443480000
H        0.7379959000      -0.7188127000      -0.3591742000
H       -0.6921954000      -1.0993716000       0.4900972000
H       -0.7339016000      -0.5464526000      -1.5117022000
C       -0.3403811000      -0.3700451000      -0.3663626000
5

H       -0.2874433000       0.6530079000      -0.2595947000
H        0.6988216000      -0.6780603000      -0.3752260000
H       -0.7418811000      -1.1000841000       0.4190678000
H       -0.7686822000      -0.5802838000      -1.4847134000
C       -0.3299890000      -0.3685483000      -0.3602387000
5

H       -0.3001370000       0.6594493000      -0.2597045000
H        0.6730694000      -0.6407742000      -0.3974619000
H       -0.7959468000      -1.0774272000       0.3357668000
H       -0.7915647000      -0.6108177000      -1.4183600000
C       -0.3205515000      -0.3718357000      -0.3571424000
5

H       -0.3241196000       0.6946607000      -0.2458499000
H        0.6819733000      -0.6161782000      -0.4240406000
H       -0.8545335000      -1.0422573000       0.2582569000
H       -0.8019175000      -0.6350697000      -1.3263656000
C       -0.3137490000      -0.3780519000      -0.3574944000
5

H       -0.3588130000       0.7358764000      -0.2223156000
H        0.7261660000      -0.6067714000      -0.4518544000
H       -0.9198062000      -1.0086520000       0.2061334000
H       -0.8052487000      -0.6526895000      -1.2356253000
C       -0.3090389000      -0.3839224000      -0.3605827000
5

H       -0.4008440000       0.7612502000      -0.1947751000
H        0.7835478000      -0.6089050000      -0.4761817000
H       -0.9896717000      -0.9842570000       0.1909002000
H       -0.8138819000      -0.6673446000      -1.1827269000
C       -0.3039891000      -0.3869688000      -0.3642206000
5

H       -0.4451830000       0.7589878000      -0.1685619000
H        0.8287961000      -0.6176388000      -0.4924018000
H       -1.0526425000      -0.9659885000       0.2103576000
H       -0.8365862000      -0.6824800000      -1.1907323000
C       -0.2971236000      -0.3865852000      -0.3662268000
5

H       -0.4864779000       0.7278288000      -0.1475274000
H        0.8463850000      -0.6290870000      -0.4974741000
H       -1.0931048000      -0.9468490000       0.2530104000
H       -0.8652680000      -0.6942153000      -1.2473385000
C       -0.2895789000      -0.3839053000      -0.3666005000
5

H       -0.5204017000       0.6762235000      -0.1335054000
H        0.8317927000      -0.6406638000      -0.4901865000
H       -1.0995690000      -0.9228758000       0.3052550000
H       -0.8832437000      -0.6950809000      -1.3208824000
C       -0.2837047000      -0.3808163000      -0.3668065000
5

H       -0.5450627000       0.6217966000      -0.1259842000
H        0.7904152000      -0.6512679000      -0.4710397000
H       -1.0678760000      -0.8946136000       0.3555920000
H       -0.8796501000      -0.6811717000      -1.3847892000
C       -0.2813748000      -0.3791730000      -0.3681117000
5

H       -0.5613379000       0.5872522000      -0.1224510000
H        0.7377657000      -0.6618069000      -0.4420749000
H       -1.0011750000      -0.8660970000       0.3965298000
H       -0.8517632000      -0.6530675000      -1.4234638000
C       -0.2837827000      -0.3804184000      -0.3712363000
5

H       -0.5702442000       0.5884432000      -0.1206803000
H        0.6970605000      -0.6749491000      -0.4062391000
H       -0.9096077000      -0.8437373000       0.4260107000
H       -0.8025285000      -0.6144634000      -1.4302898000
C       -0.2916939000      -0.3848109000      -0.3765028000
5

H       -0.5695772000       0.6226664000      -0.1213349000
H        0.6871603000      -0.6919332000      -0.3663451000
H       -0.8094208000      -0.8352500000       0.4485713000
H       -0.7395267000      -0.5715246000      -1.4075287000
C       -0.3048764000      -0.3908542000      -0.3838103000
5

H       -0.5554080000       0.6720243000      -0.1269767000
H        0.7075095000      -0.7083566000      -0.3254646000
H       -0.7185255000      -0.8472879000       0.4729693000
H       -0.6754354000      -0.5326843000      -1.3704074000
C       -0.3210444000      -0.3961475000      -0.3921424000
5

H       -0.5261557000       0.7163292000      -0.1392073000
H        0.7410432000      -0.7159010000      -0.2883492000
H       -0.6489932000      -0.8811120000       0.5031219000
H       -0.6262872000      -0.5072926000      -1.3497461000
C       -0.3365368000      -0.3988027000      -0.3987058000
5

H       -0.4839335000       0.7412330000      -0.1576129000
H        0.7697556000      -0.7080899000      -0.2605138000
H       -0.6045987000      -0.9304296000       0.5317678000
H       -0.6026302000      -0.5017684000      -1.3738159000
C       -0.3484609000      -0.3981482000      -0.4000879000
5

H       -0.4336580000       0.7403019000      -0.1800815000
H        0.7826904000      -0.6828708000      -0.2461262000
H       -0.5847596000      -0.9848514000       0.5465772000
H       -0.6013732000      -0.5161927000      -1.4354027000
C       -0.3557923000      -0.3946817000      -0.3956864000
5

H       -0.3819431000       0.7156828000      -0.2032872000
H        0.7760793000      -0.6422330000      -0.2471522000
H       -0.5876076000      -1.0344780000       0.5386809000
H       -0.6120506000      -0.5455960000      -1.4994308000
C       -0.3586953000      -0.3896654000      -0.3878165000
5

H       -0.3361329000       0.6791720000      -0.2231012000
H        0.7527285000      -0.5915074000      -0.2633496000
H       -0.6105748000      -1.0720701000       0.5054559000
H       -0.6260523000      -0.5833313000      -1.5360405000
C       -0.3577277000      -0.3848081000      -0.3791332000
5

H       -0.3031476000       0.6507089000      -0.2352632000
H        0.7226278000      -0.5387499000      -0.2923697000
H       -0.6503919000      -1.0938811000       0.4502490000
H       -0.6384234000      -0.6229978000      -1.5312538000
C       -0.3538380000      -0.3819599000      -0.3716467000
5

H       -0.2885627000       0.6485730000      -0.2368237000
H        0.7019959000      -0.4931954000      -0.3302029000
H       -0.7034347000      -1.1004210000       0.3817956000
H       -0.6469114000      -0.6590841000      -1.4837588000
C       -0.3484136000      -0.3823008000      -0.3667852000
5

H       -0.2963616000       0.6749220000      -0.2277445000
H        0.7057571000      -0.4623327000      -0.3721500000
H       -0.7663907000      -1.0965913000       0.3130446000
H       -0.6518523000      -0.6876229000      -1.4033581000
C       -0.3426235000      -0.3853052000      -0.3652107000
5

H       -0.3280359000       0.7140286000      -0.2110824000
H        0.7356522000      -0.4495577000      -0.4134276000
H       -0.8361401000      -1.0890927000       0.2576321000
H       -0.6573419000      -0.7078748000      -1.3135248000
C       -0.3364066000      -0.3888661000      -0.3662419000
5

H       -0.3812020000       0.7451301000      -0.1915957000
H        0.7781929000      -0.4544656000      -0.4491551000
H       -0.9076271000      -1.0812576000       0.2244510000
H       -0.6719691000      -0.7241241000      -1.2505626000
C       -0.3285331000      -0.3906334000      -0.3675868000
5

H       -0.4497936000       0.7533537000      -0.1739338000
H        0.8152373000      -0.4743325000      -0.4749708000
H       -0.9719961000      -1.0707558000       0.2147657000
H       -0.7032044000      -0.7413676000      -1.2430493000
C       -0.3181050000      -0.3893633000      -0.3669277000
5

H       -0.5255768000       0.7330202000      -0.1613672000
H        0.8334822000      -0.5051304000      -0.4879082000
H       -1.0184240000      -1.0529824000       0.2240160000
H       -0.7464791000      -0.7557143000      -1.2844689000
C       -0.3059897000      -0.3856307000      -0.3644032000
5

H       -0.5999724000       0.6875621000      -0.1553817000
H        0.8274735000      -0.5422322000      -0.4867365000
H       -1.0379973000      -1.0254867000       0.2452772000
H       -0.7874507000      -0.7573908000      -1.3443142000
C       -0.2944028000      -0.3811390000      -0.3619724000
5

H       -0.6659667000       0.6287606000      -0.1557115000
H        0.7999613000      -0.5811621000      -0.4719458000
H       -1.0264598000      -0.9899539000       0.2720594000
H       -0.8138131000      -0.7407969000      -1.3959081000
C       -0.2855554000      -0.3775821000      -0.3613118000
5

H       -0.7196237000       0.5743830000      -0.1605392000
H        0.7618545000      -0.6184723000      -0.4455165000
H       -0.9854212000      -0.9522063000       0.3002943000
H       -0.8194390000      -0.7064961000      -1.4242850000
C       -0.2810733000      -0.3762054000      -0.3633231000
5

H       -0.7596574000       0.5420566000      -0.1671961000
H        0.7297334000      -0.6521940000      -0.4102882000
H       -0.9225801000      -0.9211101000       0.3296303000
H       -0.8031240000      -0.6591511000      -1.4234857000
C       -0.2819117000      -0.3775188000      -0.3684631000
5

H       -0.7844852000       0.5409522000      -0.1732693000
H        0.7177612000      -0.6805400000      -0.3690861000
H       -0.8502465000      -0.9061521000       0.3632034000
H       -0.7678184000      -0.6062292000      -1.3952785000
C       -0.2881113000      -0.3810186000      -0.3768122000
5

H       -0.7901632000       0.5678707000      -0.1772232000
H        0.7279973000      -0.6993684000      -0.3248210000
H       -0.7808159000      -0.9132334000       0.4038752000
H       -0.7217517000      -0.5576199000      -1.3522215000
C       -0.2984441000      -0.3854577000      -0.3874403000
5

H       -0.7722483000       0.6107510000      -0.1783958000
H        0.7501781000      -0.7023770000      -0.2816749000
H       -0.7217800000      -0.9407907000       0.4481151000
H       -0.6794275000      -0.5245320000      -1.3221208000
C       -0.3105740000      -0.3895425000      -0.3974199000
5

H       -0.7290872000       0.6549710000      -0.1770102000
H        0.7707007000      -0.6846120000      -0.2450783000
H       -0.6757111000      -0.9806565000       0.4852600000
H       -0.6553479000      -0.5154538000      -1.3372071000
C       -0.3220633000      -0.3924343000      -0.4026737000
5

H       -0.6633577000       0.6880305000      -0.1740204000
H        0.7799479000      -0.6450405000      -0.2201047000
H       -0.6435309000      -1.0229812000       0.5040778000
H       -0.6505238000      -0.5309407000      -1.3996578000
C       -0.3317172000      -0.3939504000      -0.4015690000
5

H       -0.5819044000       0.7022957000      -0.1705678000
H        0.7743953000      -0.5867910000      -0.2101445000
H       -0.6260404000      -1.0599908000       0.4983119000
H       -0.6535331000      -0.5641149000      -1.4758994000
C       -0.3395569000      -0.3944174000      -0.3960195000
5

H       -0.4948543000       0.6967551000      -0.1673227000
H        0.7565702000      -0.5164954000      -0.2164197000
H       -0.6237285000      -1.0872469000       0.4678647000
H       -0.6538722000      -0.6057833000      -1.5310138000
C       -0.3457852000      -0.3943382000      -0.3887907000
5

H       -0.4141544000       0.6777585000      -0.1639339000
H        0.7345688000      -0.4433453000      -0.2378935000
H       -0.6364345000      -1.1040770000       0.4183582000
H       -0.6465882000      -0.6476836000      -1.5462094000
C       -0.3505081000      -0.3942245000      -0.3820492000
5

H       -0.3514221000       0.6572806000      -0.1589724000
H        0.7196793000      -0.3775133000      -0.2716415000
H       -0.6633319000      -1.1138313000       0.3603707000
H       -0.6307533000      -0.6832067000      -1.5166071000
C       -0.3538455000      -0.3945013000      -0.3774591000
5

H       -0.3156964000       0.6473965000      -0.1507504000
H        0.7207225000      -0.3281245000      -0.3136662000
H       -0.7029076000      -1.1226689000       0.3070865000
H       -0.6083987000      -0.7077372000      -1.4485448000
C       -0.3557355000      -0.3952873000      -0.3760730000
5

H       -0.3121660000       0.6532288000      -0.1388184000
H        0.7383787000      -0.3016888000      -0.3594370000
H       -0.7521234000      -1.1352776000       0.2692903000
H       -0.5849615000      -0.7202714000      -1.3620821000
C       -0.3555980000      -0.3961566000      -0.3775301000
5

H       -0.3418797000       0.6702184000      -0.1249755000
H        0.7651499000      -0.3012364000      -0.4039361000
H       -0.8050354000      -1.1501941000       0.2506830000
H       -0.5699880000      -0.7262342000      -1.2943594000
C       -0.3524130000      -0.3961387000      -0.3792922000
5

H       -0.4016946000       0.6879661000      -0.1126763000
H        0.7903757000      -0.3259718000      -0.4420139000
H       -0.8531735000      -1.1605109000       0.2480535000
H       -0.5737958000      -0.7348357000      -1.2844202000
C       -0.3453940000      -0.3942336000      -0.3779527000
5

H       -0.4845236000       0.6961786000      -0.1053314000
H        0.8050706000      -0.3716454000      -0.4691900000
H       -0.8881605000      -1.1589774000       0.2550802000
H       -0.5981506000      -0.7458520000      -1.3344304000
C       -0.3349368000      -0.3905615000      -0.3728888000
5

H       -0.5803131000       0.6882210000      -0.1051497000
H        0.8044154000      -0.4315674000      -0.4824413000
H       -0.9041973000      -1.1418845000       0.2655403000
H       -0.6342853000      -0.7481278000      -1.4083887000
C       -0.3227040000      -0.3863751000      -0.3666699000
5

H       -0.6776033000       0.6621831000      -0.1129529000
H        0.7890116000      -0.4979443000      -0.4807516000
H       -0.8993706000      -1.1104187000       0.2750908000
H       -0.6715881000      -0.7332968000      -1.4706890000
C       -0.3107606000      -0.3827717000      -0.3619380000
5

H       -0.7653215000       0.6210212000      -0.1281968000
H        0.7653455000      -0.5632827000      -0.4651814000
H       -0.8762770000      -1.0708015000       0.2825755000
H       -0.7025561000      -0.7004321000      -1.5019484000
C       -0.3009930000      -0.3801843000      -0.3601806000
5

H       -0.8346076000       0.5722234000      -0.1488471000
H        0.7439450000      -0.6214952000      -0.4382987000
H       -0.8419884000      -1.0334740000       0.2907462000
H       -0.7226637000      -0.6534517000      -1.4950506000
C       -0.2948155000      -0.3785472000      -0.3621815000
5

H       -0.8802862000       0.5266647000      -0.1712014000
H        0.7342064000      -0.6678860000      -0.4031637000
H       -0.8061825000      -1.0101907000       0.3049989000
H       -0.7297801000      -0.5991493000      -1.4513647000
C       -0.2928183000      -0.3776101000      -0.3683332000
5

H       -0.9012576000       0.4963551000      -0.1899410000
H        0.7387204000      -0.6979919000      -0.3627437000
H       -0.7767067000      -1.0084175000       0.3287347000
H       -0.7250649000      -0.5467451000      -1.3820861000
C       -0.2945548000      -0.3773550000      -0.3781785000
5

H       -0.8991514000       0.4909657000      -0.1990068000
H        0.7523379000      -0.7071647000      -0.3203443000
H       -0.7559006000      -1.0267331000       0.3583518000
H       -0.7158071000      -0.5075468000      -1.3136342000
C       -0.2986470000      -0.3781547000      -0.3894273000
5

H       -0.8756516000       0.5136247000      -0.1938030000
H        0.7664537000      -0.6920301000      -0.2801303000
H       -0.7418473000      -1.0564727000       0.3842579000
H       -0.7160799000      -0.4923247000      -1.2857964000
C       -0.3032099000      -0.3803786000      -0.3979682000
5

H       -0.8308779000       0.5582027000      -0.1737680000
H        0.7740946000      -0.6523239000      -0.2466294000
H       -0.7320202000      -1.0874903000       0.3969508000
H       -0.7342057000      -0.5052144000      -1.3209639000
C       -0.3071613000      -0.3840386000      -0.4007897000
5

H       -0.7650051000       0.6110635000      -0.1429976000
H        0.7727314000      -0.5915149000      -0.2236386000
H       -0.7250611000      -1.1122169000       0.3913768000
H       -0.7595909000      -0.5403155000      -1.3960346000
C       -0.3112779000      -0.3888292000      -0.3987450000
5

H       -0.6814121000       0.6567725000      -0.1082490000
H        0.7644884000      -0.5162041000      -0.2135519000
H       -0.7208706000      -1.1269921000       0.3677441000
H       -0.7750660000      -0.5863241000      -1.4701324000
C       -0.3169044000      -0.3941566000      -0.3945160000
5

H       -0.5880453000       0.6837644000      -0.0761312000
H        0.7544022000      -0.4349582000      -0.2172574000
H       -0.7204368000      -1.1325051000       0.3312062000
H       -0.7707010000      -0.6324197000      -1.5158212000
C       -0.3245475000      -0.3991810000      -0.3902101000
5

H       -0.4963189000       0.6872681000      -0.0512410000
H        0.7473864000      -0.3572159000      -0.2343930000
H       -0.7256263000      -1.1338166000       0.2912742000
H       -0.7441265000      -0.6702707000      -1.5215802000
C       -0.3337035000      -0.4029835000      -0.3872381000
5

H       -0.4187635000       0.6697140000      -0.0355176000
H        0.7456403000      -0.2925195000      -0.2636071000
H       -0.7381919000      -1.1384383000       0.2594163000
H       -0.6978520000      -0.6940216000      -1.4869607000
C       -0.3431475000      -0.4048279000      -0.3865516000
5

H       -0.3663878000       0.6396932000      -0.0283315000
H        0.7485010000      -0.2495453000      -0.3024440000
H       -0.7575142000      -1.1512801000       0.2439588000
H       -0.6384634000      -0.7008048000      -1.4221937000
C       -0.3513982000      -0.4045349000      -0.3882497000
5

H       -0.3464591000       0.6098376000      -0.0270167000
H        0.7540807000      -0.2344889000      -0.3470912000
H       -0.7789825000      -1.1701357000       0.2457323000
H       -0.5771304000      -0.6930141000      -1.3528691000
C       -0.3571352000      -0.4026295000      -0.3907970000
5

H       -0.3614401000       0.5931397000      -0.0280249000
H        0.7604040000      -0.2495689000      -0.3924552000
H       -0.7956978000      -1.1872796000       0.2589072000
H       -0.5279848000      -0.6798442000      -1.3199512000
C       -0.3593790000      -0.3998936000      -0.3909889000
5

H       -0.4093218000       0.5973776000      -0.0289121000
H        0.7655348000      -0.2925553000      -0.4327151000
H       -0.8020039000      -1.1950374000       0.2753894000
H       -0.5006483000      -0.6694785000      -1.3515162000
C       -0.3578022000      -0.3971248000      -0.3864819000
5

H       -0.4842342000       0.6197726000      -0.0303339000
H        0.7675589000      -0.3573597000      -0.4623723000
H       -0.7956772000      -1.1895945000       0.2885449000
H       -0.4953230000      -0.6586644000      -1.4287760000
C       -0.3529070000      -0.3951947000      -0.3787035000
5

H       -0.5763424000       0.6471842000      -0.0359340000
H        0.7650271000      -0.4352595000      -0.4775167000
H       -0.7784273000      -1.1720996000       0.2950054000
H       -0.5077516000      -0.6399769000      -1.5092975000
C       -0.3456115000      -0.3942593000      -0.3709568000
5

H       -0.6726026000       0.6636458000      -0.0495111000
H        0.7580531000      -0.5164502000      -0.4766746000
H       -0.7555296000      -1.1483932000       0.2953457000
H       -0.5333810000      -0.6110379000      -1.5625531000
C       -0.3369601000      -0.3935104000      -0.3656588000
5

H       -0.7594830000       0.6583358000      -0.0723611000
H        0.7490007000      -0.5916269000      -0.4608129000
H       -0.7345802000      -1.1273224000       0.2935003000
H       -0.5677669000      -0.5740303000      -1.5745399000
C       -0.3280228000      -0.3918941000      -0.3641258000
5

H       -0.8258957000       0.6286500000      -0.1025704000
H        0.7415849000      -0.6531123000      -0.4326071000
H       -0.7229039000      -1.1169059000       0.2938846000
H       -0.6064541000      -0.5333479000      -1.5421951000
C       -0.3198020000      -0.3887943000      -0.3669220000
5

H       -0.8651735000       0.5801277000      -0.1352704000
H        0.7387690000      -0.6952389000      -0.3955204000
H       -0.7243578000      -1.1197490000       0.2972775000
H       -0.6454371000      -0.4947258000      -1.4716910000
C       -0.3131191000      -0.3844515000      -0.3737126000
5

H       -0.8765395000       0.5259219000      -0.1629282000
H        0.7409625000      -0.7142660000      -0.3533221000
H       -0.7380220000      -1.1318246000       0.2995752000
H       -0.6829888000      -0.4651800000      -1.3818390000
C       -0.3082959000      -0.3800335000      -0.3828890000
5

H       -0.8657000000       0.4852766000      -0.1762028000
H        0.7459706000      -0.7084441000      -0.3101566000
H       -0.7597442000      -1.1458247000       0.2949891000
H       -0.7229383000      -0.4523780000      -1.3070894000
C       -0.3046954000      -0.3772736000      -0.3915081000
5

H       -0.8416838000       0.4769544000      -0.1668614000
H        0.7509766000      -0.6785311000      -0.2704913000
H       -0.7845195000      -1.1553114000       0.2800514000
H       -0.7727408000      -0.4618474000      -1.2828415000
C       -0.3011170000      -0.3777603000      -0.3966216000
5

H       -0.8092232000       0.5066329000      -0.1328552000
H        0.7551076000      -0.6282503000      -0.2383414000
H       -0.8080255000      -1.1569317000       0.2553091000
H       -0.8295029000      -0.4926019000      -1.3127195000
C       -0.2976958000      -0.3820222000      -0.3978059000
5

H       -0.7657868000       0.5607006000      -0.0811085000
H        0.7600337000      -0.5638078000      -0.2164846000
H       -0.8274219000      -1.1509047000       0.2248244000
H       -0.8761763000      -0.5363318000      -1.3684643000
C       -0.2964550000      -0.3890741000      -0.3969606000
5

H       -0.7082586000       0.6162722000      -0.0239714000
H        0.7675467000      -0.4925086000      -0.2065290000
H       -0.8418566000      -1.1407002000       0.1950072000
H       -0.8965074000      -0.5820196000      -1.4208219000
C       -0.2992437000      -0.3970143000      -0.3959091000
5

H       -0.6387785000       0.6545107000       0.0266740000
H        0.7764559000      -0.4217311000      -0.2094223000
H       -0.8524455000      -1.1321061000       0.1734301000
H       -0.8830609000      -0.6202017000      -1.4530163000
C       -0.3063129000      -0.4039498000      -0.3956190000
5

H       -0.5644553000       0.6656499000       0.0625254000
H        0.7824153000      -0.3588664000      -0.2255156000
H       -0.8609218000      -1.1308963000       0.1668258000
H       -0.8359154000      -0.6442318000      -1.4585878000
C       -0.3165486000      -0.4085129000      -0.3964715000
5

H       -0.4948302000       0.6485616000       0.0793543000
H        0.7809970000      -0.3112003000      -0.2540272000
H       -0.8671073000      -1.1393289000       0.1781321000
H       -0.7608062000      -0.6504106000      -1.4389454000
C       -0.3283108000      -0.4101177000      -0.3983055000
5

H       -0.4397013000       0.6098950000       0.0769936000
H        0.7709306000      -0.2849977000      -0.2924854000
H       -0.8676504000      -1.1543299000       0.2045530000
H       -0.6689288000      -0.6386968000      -1.4049470000
C       -0.3400112000      -0.4090585000      -0.4001677000
5

H       -0.4072650000       0.5642870000       0.0598410000
H        0.7552647000      -0.2842205000      -0.3365497000
H       -0.8578508000      -1.1694858000       0.2385435000
H       -0.5759666000      -0.6136829000      -1.3795866000
C       -0.3502955000      -0.4063850000      -0.4002273000
5

H       -0.4023191000       0.5333724000       0.0368707000
H        0.7401411000      -0.3095758000      -0.3803472000
H       -0.8347366000      -1.1788371000       0.2709704000
H       -0.4964299000      -0.5824941000      -1.3891783000
C       -0.3583074000      -0.4037569000      -0.3967540000
5

H       -0.4251654000       0.5371962000       0.0177121000
H        0.7315951000      -0.3582861000      -0.4174715000
H       -0.7989727000      -1.1796062000       0.2944902000
H       -0.4375270000      -0.5491028000      -1.4380707000
C       -0.3638667000      -0.4029907000      -0.3901126000
5

H       -0.4715777000       0.5776272000       0.0048936000
H        0.7318913000      -0.4244828000      -0.4424325000
H       -0.7552691000      -1.1733400000       0.3058824000
H       -0.4015907000      -0.5139039000      -1.5025728000
C       -0.3669272000      -0.4045729000      -0.3826961000
5

H       -0.5331472000       0.6342107000      -0.0072128000
H        0.7383076000      -0.4999243000      -0.4518256000
H       -0.7116223000      -1.1657695000       0.3068553000
H       -0.3898806000      -0.4780998000      -1.5546535000
C       -0.3671893000      -0.4068955000      -0.3768153000
5

H       -0.5990024000       0.6808077000      -0.0247068000
H        0.7454906000      -0.5751097000      -0.4447960000
H       -0.6773126000      -1.1646511000       0.3025857000
H       -0.4022124000      -0.4446678000      -1.5770251000
C       -0.3643526000      -0.4076596000      -0.3739162000
5

H       -0.6588004000       0.6999070000      -0.0493377000
H        0.7488293000      -0.6407806000      -0.4228536000
H       -0.6599628000      -1.1750934000       0.2974598000
H       -0.4363600000      -0.4171526000      -1.5632714000
C       -0.3584452000      -0.4054453000      -0.3746325000
5

H       -0.7047170000       0.6852411000      -0.0787791000
H        0.7462218000      -0.6892971000      -0.3892629000
H       -0.6632130000      -1.1952906000       0.2909185000
H       -0.4883827000      -0.3989092000      -1.5161730000
C       -0.3499731000      -0.4002376000      -0.3786050000
5

H       -0.7324030000       0.6405671000      -0.1078136000
H        0.7380838000      -0.7155502000      -0.3483688000
H       -0.6864156000      -1.2172338000       0.2780369000
H       -0.5536372000      -0.3928420000      -1.4489591000
C       -0.3397804000      -0.3932100000      -0.3843820000
5

H       -0.7421382000       0.5796304000      -0.1288634000
H        0.7268228000      -0.7175440000      -0.3050618000
H       -0.7257703000      -1.2315790000       0.2539593000
H       -0.6286378000      -0.4012170000      -1.3857773000
C       -0.3286578000      -0.3862790000      -0.3897534000
5

H       -0.7399299000       0.5256017000      -0.1327736000
H        0.7167509000      -0.6967764000      -0.2641526000
H       -0.7756153000      -1.2319001000       0.2174874000
H       -0.7112599000      -0.4251934000      -1.3511081000
C       -0.3171167000      -0.3817069000      -0.3929274000
5

H       -0.7349443000       0.5024317000      -0.1120212000
H        0.7140309000      -0.6580926000      -0.2294253000
H       -0.8295164000      -1.2164656000       0.1719298000
H       -0.7951533000      -0.4632315000      -1.3500835000
C       -0.3059783000      -0.3813732000      -0.3940648000
5

H       -0.7311353000       0.5168124000      -0.0667501000
H        0.7245946000      -0.6082967000      -0.2030374000
H       -0.8814032000      -1.1883440000       0.1240412000
H       -0.8664400000      -0.5094161000      -1.3676167000
C       -0.2970845000      -0.3855080000      -0.3948071000
5

H       -0.7235919000       0.5526770000      -0.0071528000
H        0.7491947000      -0.5538844000      -0.1862077000
H       -0.9267240000      -1.1543393000       0.0823183000
H       -0.9105979000      -0.5549458000      -1.3864629000
C       -0.2925130000      -0.3923839000      -0.3963574000
5

H       -0.7057722000       0.5873661000       0.0522430000
H        0.7802154000      -0.4999848000      -0.1803396000
H       -0.9630757000      -1.1228821000       0.0552592000
H       -0.9188968000      -0.5913313000      -1.3970496000
C       -0.2931085000      -0.3996718000      -0.3988953000
5

H       -0.6755146000       0.6054214000       0.0991407000
H        0.8052156000      -0.4511456000      -0.1868337000
H       -0.9895772000      -1.1012765000       0.0494576000
H       -0.8892575000      -0.6123150000      -1.3969694000
C       -0.2982561000      -0.4056036000      -0.4020261000
5

H       -0.6351236000       0.6007565000       0.1257403000
H        0.8137652000      -0.4119482000      -0.2059114000
H       -1.0050892000      -1.0932205000       0.0675445000
H       -0.8255936000      -0.6146383000      -1.3892077000
C       -0.3066534000      -0.4092465000      -0.4050466000
5

H       -0.5898107000       0.5751320000       0.1288360000
H        0.8018316000      -0.3866113000      -0.2358185000
H       -1.0069323000      -1.0978736000       0.1067268000
H       -0.7377777000      -0.5985880000      -1.3824595000
C       -0.3169201000      -0.4104406000      -0.4068701000
5

H       -0.5466329000       0.5379351000       0.1102873000
H        0.7731344000      -0.3782881000      -0.2726835000
H       -0.9916406000      -1.1109914000       0.1589670000
H       -0.6401407000      -0.5679087000      -1.3907757000
C       -0.3278633000      -0.4097515000      -0.4061233000
5

H       -0.5134418000       0.5068914000       0.0779620000
H        0.7385741000      -0.3885175000      -0.3108695000
H       -0.9572134000      -1.1272416000       0.2133119000
H       -0.5458457000      -0.5276396000      -1.4249027000
C       -0.3388012000      -0.4085634000      -0.4021177000
5

H       -0.4966129000       0.5040681000       0.0437978000
H        0.7126152000      -0.4169050000      -0.3441371000
H       -0.9050992000      -1.1423576000       0.2594645000
H       -0.4625363000      -0.4817290000      -1.4787451000
C       -0.3496498000      -0.4087894000      -0.3960271000
5

H       -0.4976847000       0.5405559000       0.0156912000
H        0.7055154000      -0.4609169000      -0.3674269000
H       -0.8408528000      -1.1545071000       0.2907620000
H       -0.3950692000      -0.4339942000      -1.5320734000
C       -0.3602669000      -0.4114071000      -0.3900790000
5

H       -0.5124151000       0.6033316000      -0.0080660000
H        0.7164995000      -0.5155451000      -0.3779136000
H       -0.7733824000      -1.1649000000       0.3055346000
H       -0.3481244000      -0.3894582000      -1.5660621000
C       -0.3698028000      -0.4152199000      -0.3858079000
5

H       -0.5339476000       0.6657392000      -0.0327239000
H        0.7355733000      -0.5734276000      -0.3749382000
H       -0.7129369000      -1.1771842000       0.3065459000
H       -0.3252558000      -0.3535114000      -1.5708293000
C       -0.3768351000      -0.4178481000      -0.3838904000
5

H       -0.5561633000       0.7057137000      -0.0602219000
H        0.7513506000      -0.6262230000      -0.3596624000
H       -0.6684674000      -1.1950377000       0.2982741000
H       -0.3278141000      -0.3307150000      -1.5451736000
C       -0.3800561000      -0.4174473000      -0.3845430000
5

H       -0.5749011000       0.7123137000      -0.0885629000
H        0.7564439000      -0.6664493000      -0.3346642000
H       -0.6457834000      -1.2189030000       0.2833233000
H       -0.3547776000      -0.3241245000      -1.4965165000
C       -0.3787929000      -0.4134330000      -0.3873124000
5

H       -0.5881497000       0.6852075000      -0.1133420000
H        0.7483787000      -0.6886844000      -0.3034838000
H       -0.6473259000      -1.2446389000       0.2610706000
H       -0.4032066000      -0.3348534000      -1.4429067000
C       -0.3730482000      -0.4064873000      -0.3907032000
5

H       -0.5964513000       0.6344676000      -0.1286905000
H        0.7289070000      -0.6902225000      -0.2702295000
H       -0.6727637000      -1.2654137000       0.2296623000
H       -0.4695808000      -0.3622289000      -1.4105659000
C       -0.3632469000      -0.3983136000      -0.3925052000
5

H       -0.6037322000       0.5809791000      -0.1278142000
H        0.7040686000      -0.6717590000      -0.2389463000
H       -0.7193424000      -1.2748786000       0.1889186000
H       -0.5501964000      -0.4046522000      -1.4159720000
C       -0.3501086000      -0.3912749000      -0.3915502000
5

H       -0.6167250000       0.5500458000      -0.1049321000
H        0.6848073000      -0.6378958000      -0.2124505000
H       -0.7819311000      -1.2693547000       0.1415255000
H       -0.6372757000      -0.4585304000      -1.4475934000
C       -0.3350714000      -0.3877205000      -0.3892811000
5

H       -0.6397749000       0.5525375000      -0.0602679000
H        0.6846180000      -0.5960684000      -0.1914796000
H       -0.8533081000      -1.2485510000       0.0922768000
H       -0.7175376000      -0.5164462000      -1.4789782000
C       -0.3206254000      -0.3885864000      -0.3882417000
5

H       -0.6693951000       0.5746922000      -0.0032958000
H        0.7106762000      -0.5532308000      -0.1757507000
H       -0.9250676000      -1.2152569000       0.0469147000
H       -0.7777979000      -0.5691636000      -1.4912238000
C       -0.3094797000      -0.3926741000      -0.3897297000
5

H       -0.6972310000       0.5939250000       0.0520013000
H        0.7551464000      -0.5134412000      -0.1661960000
H       -0.9891172000      -1.1745174000       0.0114889000
H       -0.8092499000      -0.6085995000      -1.4780370000
C       -0.3030971000      -0.3980011000      -0.3935290000
5

H       -0.7161033000       0.5952459000       0.0938391000
H        0.7992916000      -0.4790400000      -0.1650402000
H       -1.0391819000      -1.1326682000      -0.0081823000
H       -0.8080900000      -0.6291141000      -1.4423595000
C       -0.3013530000      -0.4030534000      -0.3987046000
5

H       -0.7222149000       0.5740094000       0.1150404000
H        0.8254463000      -0.4523592000      -0.1737846000
H       -1.0715269000      -1.0962853000      -0.0074975000
H       -0.7757604000      -0.6282059000      -1.3945696000
C       -0.3032754000      -0.4069026000      -0.4040423000
5

H       -0.7150967000       0.5338933000       0.1130668000
H        0.8241133000      -0.4357275000      -0.1918925000
H       -1.0845413000      -1.0710091000       0.0154156000
H       -0.7202864000      -0.6075249000      -1.3537977000
C       -0.3075676000      -0.4090492000      -0.4079245000
5

H       -0.6977607000       0.4863775000       0.0904690000
H        0.7955902000      -0.4308274000      -0.2166074000
H       -1.0776380000      -1.0603863000       0.0581348000
H       -0.6556301000      -0.5728577000      -1.3466166000
C       -0.3128782000      -0.4095325000      -0.4083619000
5

H       -0.6772014000       0.4513474000       0.0558583000
H        0.7503989000      -0.4382862000      -0.2431177000
H       -1.0507019000      -1.0651986000       0.1136401000
H       -0.5934588000      -0.5302318000      -1.3898157000
C       -0.3185330000      -0.4093983000      -0.4044823000
5

H       -0.6625322000       0.4523633000       0.0215879000
H        0.7083157000      -0.4576243000      -0.2653743000
H       -1.0048863000      -1.0836027000       0.1722851000
H       -0.5359804000      -0.4825696000      -1.4683046000
C       -0.3251454000      -0.4105751000      -0.3982883000
5

H       -0.6579435000       0.4993730000      -0.0053301000
H        0.6903694000      -0.4872607000      -0.2783984000
H       -0.9437991000      -1.1118735000       0.2248302000
H       -0.4822773000      -0.4329873000      -1.5474718000
C       -0.3339037000      -0.4140824000      -0.3929179000
5

H       -0.6583619000       0.5755903000      -0.0282397000
H        0.7033636000      -0.5238730000      -0.2807282000
H       -0.8737563000      -1.1455284000       0.2645631000
H       -0.4342621000      -0.3868859000      -1.6000904000
C       -0.3451142000      -0.4187123000      -0.3899364000
5

H       -0.6557064000       0.6511456000      -0.0530695000
H        0.7343364000      -0.5617237000      -0.2743289000
H       -0.8027320000      -1.1803993000       0.2878712000
H       -0.3955545000      -0.3501920000      -1.6132904000
C       -0.3573932000      -0.4222900000      -0.3894582000
5

H       -0.6452850000       0.7023835000      -0.0815527000
H        0.7634763000      -0.5938899000      -0.2624994000
H       -0.7385948000      -1.2131010000       0.2936359000
H       -0.3695405000      -0.3278701000      -1.5850551000
C       -0.3685258000      -0.4232780000      -0.3911362000
5

H       -0.6263903000       0.7173747000      -0.1113505000
H        0.7769311000      -0.6144639000      -0.2482677000
H       -0.6878272000      -1.2409906000       0.2823461000
H       -0.3585168000      -0.3233266000      -1.5229753000
C       -0.3766710000      -0.4211062000      -0.3943160000
5

H       -0.6011423000       0.6947741000      -0.1378517000
H        0.7695570000      -0.6197354000      -0.2339452000
H       -0.6552443000      -1.2622219000       0.2557545000
H       -0.3632722000      -0.3378296000      -1.4478825000
C       -0.3807480000      -0.4160220000      -0.3975883000
5

H       -0.5740947000       0.6439442000      -0.1551431000
H        0.7432587000      -0.6084834000      -0.2212104000
H       -0.6442351000      -1.2761526000       0.2171805000
H       -0.3830792000      -0.3703036000      -1.3963936000
C       -0.3803107000      -0.4090586000      -0.3985125000
5

H       -0.5525151000       0.5872176000      -0.1563808000
H        0.7060249000      -0.5822340000      -0.2110943000
H       -0.6568432000      -1.2837245000       0.1718778000
H       -0.4166615000      -0.4188031000      -1.4017861000
C       -0.3753554000      -0.4020476000      -0.3952229000
5

H       -0.5456684000       0.5561322000      -0.1351696000
H        0.6722463000      -0.5455345000      -0.2035452000
H       -0.6932799000      -1.2869672000       0.1263945000
H       -0.4616792000      -0.4800125000      -1.4570221000
C       -0.3664909000      -0.3973640000      -0.3894017000
5

H       -0.5604151000       0.5684945000      -0.0907012000
H        0.6602994000      -0.5051115000      -0.1972152000
H       -0.7508300000      -1.2871194000       0.0863909000
H       -0.5121562000      -0.5456471000      -1.5230488000
C       -0.3554143000      -0.3965298000      -0.3849856000
5

H       -0.5955861000       0.6082975000      -0.0326421000
H        0.6818050000      -0.4671474000      -0.1907625000
H       -0.8228071000      -1.2826825000       0.0547814000
H       -0.5600740000      -0.6048654000      -1.5674831000
C       -0.3444352000      -0.3987180000      -0.3842401000
5

H       -0.6430646000       0.6442851000       0.0236860000
H        0.7296472000      -0.4352613000      -0.1848874000
H       -0.8989582000      -1.2698041000       0.0321803000
H       -0.5985772000      -0.6487477000      -1.5757823000
C       -0.3350743000      -0.4020723000      -0.3870924000
5

H       -0.6932824000       0.6546782000       0.0655172000
H        0.7823318000      -0.4114366000      -0.1820158000
H       -0.9678599000      -1.2451225000       0.0186745000
H       -0.6229613000      -0.6714900000      -1.5458020000
C       -0.3276844000      -0.4053666000      -0.3924538000
5

H       -0.7382980000       0.6313295000       0.0852503000
H        0.8189534000      -0.3972052000      -0.1841263000
H       -1.0198936000      -1.2084990000       0.0149818000
H       -0.6309240000      -0.6704489000      -1.4842928000
C       -0.3221780000      -0.4080214000      -0.3990131000
5

H       -0.7725529000       0.5762015000       0.0799624000
H        0.8274075000      -0.3935695000      -0.1915712000
H       -1.0491616000      -1.1639348000       0.0224038000
H       -0.6238822000      -0.6470592000      -1.4087808000
C       -0.3183817000      -0.4096609000      -0.4051323000
5

H       -0.7936572000       0.5001337000       0.0515579000
H        0.8054828000      -0.4006109000      -0.2030225000
H       -1.0540219000      -1.1189525000       0.0419844000
H       -0.6091502000      -0.6081821000      -1.3514009000
C       -0.3158342000      -0.4099805000      -0.4084718000
5

H       -0.8045500000       0.4246467000       0.0083246000
H        0.7611420000      -0.4172119000      -0.2155033000
H       -1.0366462000      -1.0830645000       0.0734826000
H       -0.5975758000      -0.5635325000      -1.3485896000
C       -0.3138640000      -0.4092671000      -0.4068973000
5

H       -0.8153417000       0.3811366000      -0.0351399000
H        0.7134708000      -0.4410500000      -0.2244009000
H       -1.0020060000      -1.0655138000       0.1149014000
H       -0.5925199000      -0.5184098000      -1.4060222000
C       -0.3125251000      -0.4091311000      -0.4013779000
5

H       -0.8362938000       0.3946595000      -0.0663142000
H        0.6882636000      -0.4691080000      -0.2248190000
H       -0.9562248000      -1.0721878000       0.1625679000
H       -0.5871822000      -0.4742451000      -1.4898814000
C       -0.3131790000      -0.4113155000      -0.3959082000
5

H       -0.8630053000       0.4594927000      -0.0852359000
H        0.7006558000      -0.4978912000      -0.2150707000
H       -0.9044933000      -1.1026089000       0.2110079000
H       -0.5749657000      -0.4342321000      -1.5623713000
C       -0.3175842000      -0.4154051000      -0.3933413000
5

H       -0.8795190000       0.5448296000      -0.0993803000
H        0.7401119000      -0.5226791000      -0.1988481000
H       -0.8500828000      -1.1494702000       0.2529569000
H       -0.5539372000      -0.4029679000      -1.6015025000
C       -0.3260838000      -0.4194366000      -0.3939764000
5

H       -0.8739097000       0.6204189000      -0.1136167000
H        0.7815380000      -0.5381599000      -0.1825919000
H       -0.7952088000      -1.2015561000       0.2806252000
H       -0.5253274000      -0.3844278000      -1.5989238000
C       -0.3372825000      -0.4219236000      -0.3969104000
5

H       -0.8429278000       0.6674470000      -0.1286370000
H        0.8045800000      -0.5404328000      -0.1716111000
H       -0.7424381000      -1.2478983000       0.2879348000
H       -0.4921015000      -0.3812911000      -1.5564186000
C       -0.3492795000      -0.4223096000      -0.4009792000
5

H       -0.7895052000       0.6775732000      -0.1428496000
H        0.7998650000      -0.5278943000      -0.1686807000
H       -0.6952934000      -1.2807411000       0.2723566000
H       -0.4585050000      -0.3947684000      -1.4875311000
C       -0.3603884000      -0.4205785000      -0.4047335000
5

H       -0.7208660000       0.6515096000      -0.1535325000
H        0.7676936000      -0.5011517000      -0.1742095000
H       -0.6580678000      -1.2969982000       0.2358570000
H       -0.4295826000      -0.4246124000      -1.4220309000
C       -0.3692436000      -0.4170190000      -0.4060326000
5

H       -0.6484193000       0.6011032000      -0.1568520000
H        0.7171478000      -0.4629551000      -0.1864766000
H       -0.6353655000      -1.2990714000       0.1853356000
H       -0.4093815000      -0.4698465000      -1.3984227000
C       -0.3749231000      -0.4122757000      -0.4026888000
5

H       -0.5875314000       0.5530592000      -0.1472925000
H        0.6666233000      -0.4181524000      -0.2017688000
H       -0.6314843000      -1.2949825000       0.1321175000
H       -0.3990389000      -0.5280561000      -1.4301250000
C       -0.3772250000      -0.4077136000      -0.3953013000
5

H       -0.5533336000       0.5409115000      -0.1192184000
H        0.6405736000      -0.3728384000      -0.2154593000
H       -0.6492137000      -1.2955931000       0.0887041000
H       -0.3977052000      -0.5915558000      -1.4901244000
C       -0.3767688000      -0.4053699000      -0.3880502000
5

H       -0.5527844000       0.5745924000      -0.0737218000
H        0.6551110000      -0.3326847000      -0.2246577000
H       -0.6878531000      -1.3073430000       0.0630989000
H       -0.4040944000      -0.6489136000      -1.5433034000
C       -0.3744899000      -0.4060217000      -0.3847079000
5

H       -0.5823334000       0.6283760000      -0.0221374000
H        0.7028361000      -0.3022958000      -0.2298492000
H       -0.7416575000      -1.3259860000       0.0556506000
H       -0.4168393000      -0.6905348000      -1.5690541000
C       -0.3706627000      -0.4082847000      -0.3860423000
5

H       -0.6328531000       0.6692525000       0.0214524000
H        0.7595557000      -0.2852933000      -0.2331243000
H       -0.8007759000      -1.3393231000       0.0614239000
H       -0.4345363000      -0.7106657000      -1.5601975000
C       -0.3649668000      -0.4105902000      -0.3908835000
5

H       -0.6942102000       0.6772647000       0.0470388000
H        0.8023817000      -0.2835626000      -0.2359124000
H       -0.8545178000      -1.3357404000       0.0745666000
H       -0.4558241000      -0.7071948000      -1.5189564000
C       -0.3573435000      -0.4122564000      -0.3975925000
5

H       -0.7571695000       0.6456405000       0.0495789000
H        0.8179921000      -0.2968395000      -0.2385315000
H       -0.8942783000      -1.3096948000       0.0907059000
H       -0.4798663000      -0.6819561000      -1.4574195000
C       -0.3482427000      -0.4130479000      -0.4043365000
5

H       -0.8141761000       0.5774152000       0.0284089000
H        0.8028439000      -0.3229961000      -0.2405334000
H       -0.9148971000      -1.2626829000       0.1073512000
H       -0.5075472000      -0.6415263000      -1.4003129000
C       -0.3383603000      -0.4127199000      -0.4088119000
5

H       -0.8607599000       0.4853635000      -0.0121826000
H        0.7630788000      -0.3582992000      -0.2407810000
H       -0.9152910000      -1.2026772000       0.1238079000
H       -0.5419391000      -0.5954274000      -1.3788056000
C       -0.3284208000      -0.4111899000      -0.4087980000
5

H       -0.8985883000       0.3939411000      -0.0617837000
H        0.7161170000      -0.3976508000      -0.2370731000
H       -0.8990487000      -1.1433674000       0.1414263000
H       -0.5838791000      -0.5503098000      -1.4051705000
C       -0.3193755000      -0.4092318000      -0.4044369000
5

H       -0.9369529000       0.3352207000      -0.1060716000
H        0.6883557000      -0.4355602000      -0.2262948000
H       -0.8740470000      -1.1017393000       0.1635793000
H       -0.6265615000      -0.5086593000      -1.4592124000
C       -0.3125711000      -0.4083647000      -0.3991723000
5

H       -0.9830378000       0.3300588000      -0.1353872000
H        0.6990645000      -0.4674329000      -0.2068830000
H       -0.8488715000      -1.0915383000       0.1932968000
H       -0.6595700000      -0.4732105000      -1.5110517000
C       -0.3091759000      -0.4093425000      -0.3967111000
5

H       -1.0281583000       0.3719318000      -0.1499791000
H        0.7415354000      -0.4892488000      -0.1820869000
H       -0.8271608000      -1.1149975000       0.2284413000
H       -0.6753232000      -0.4477161000      -1.5410287000
C       -0.3096869000      -0.4114520000      -0.3982309000
5

H       -1.0542507000       0.4373283000      -0.1544726000
H        0.7901754000      -0.4972558000      -0.1588782000
H       -0.8063795000      -1.1614844000       0.2601212000
H       -0.6704875000      -0.4352638000      -1.5410345000
C       -0.3139652000      -0.4136674000      -0.4026915000
5

H       -1.0484891000       0.5034529000      -0.1524283000
H        0.8214284000      -0.4893175000      -0.1437695000
H       -0.7823950000      -1.2148342000       0.2775338000
H       -0.6454938000      -0.4375139000      -1.5120021000
C       -0.3214204000      -0.4154717000      -0.4082615000
5

H       -1.0071883000       0.5544652000      -0.1459483000
H        0.8226186000      -0.4656295000      -0.1405660000
H       -0.7534306000      -1.2609940000       0.2734419000
H       -0.6046706000      -0.4547576000      -1.4647692000
C       -0.3310831000      -0.4166741000      -0.4129267000
5

H       -0.9338762000       0.5812599000      -0.1366417000
H        0.7915243000      -0.4283760000      -0.1501556000
H       -0.7207438000      -1.2913425000       0.2462381000
H       -0.5561175000      -0.4863488000      -1.4221749000
C       -0.3416847000      -0.4171048000      -0.4144244000
5

H       -0.8379799000       0.5814888000      -0.1258294000
H        0.7358587000      -0.3812700000      -0.1705197000
H       -0.6879471000      -1.3035841000       0.2001515000
H       -0.5084428000      -0.5310939000      -1.4113978000
C       -0.3520549000      -0.4165477000      -0.4108856000
5

H       -0.7348163000       0.5620449000      -0.1136222000
H        0.6744801000      -0.3290764000      -0.1967491000
H       -0.6602845000      -1.3024658000       0.1451167000
H       -0.4655538000      -0.5855783000      -1.4402486000
C       -0.3617222000      -0.4150698000      -0.4028916000
5

H       -0.6440745000       0.5414384000      -0.0975860000
H        0.6346308000      -0.2768628000      -0.2225667000
H       -0.6435313000      -1.2995500000       0.0951981000
H       -0.4275373000      -0.6415208000      -1.4882772000
C       -0.3708286000      -0.4135243000      -0.3940730000
5

H       -0.5832970000       0.5423529000      -0.0738337000
H        0.6364519000      -0.2299448000      -0.2439629000
H       -0.6416961000      -1.3081153000       0.0636156000
H       -0.3952152000      -0.6882330000      -1.5288143000
C       -0.3791866000      -0.4131528000      -0.3884434000
5

H       -0.5601129000       0.5716113000      -0.0423876000
H        0.6757177000      -0.1949854000      -0.2609597000
H       -0.6543085000      -1.3326898000       0.0563095000
H       -0.3708456000      -0.7173392000      -1.5456874000
C       -0.3856503000      -0.4142913000      -0.3878561000
5

H       -0.5721037000       0.6128989000      -0.0100864000
H        0.7298848000      -0.1786295000      -0.2749238000
H       -0.6761713000      -1.3638815000       0.0701333000
H       -0.3569190000      -0.7245052000      -1.5337852000
C       -0.3887569000      -0.4161638000      -0.3917871000
5

H       -0.6118403000       0.6429537000       0.0138166000
H        0.7763178000      -0.1842411000      -0.2860875000
H       -0.7002328000      -1.3857686000       0.0969516000
H       -0.3554410000      -0.7094077000      -1.4968584000
C       -0.3876535000      -0.4178992000      -0.3984417000
5

H       -0.6703701000       0.6457294000       0.0224787000
H        0.8005628000      -0.2110588000      -0.2936138000
H       -0.7205522000      -1.3858741000       0.1282296000
H       -0.3676748000      -0.6759587000      -1.4485755000
C       -0.3822707000      -0.4189330000      -0.4054505000
5

H       -0.7387761000       0.6152263000       0.0130015000
H        0.7965183000      -0.2552378000      -0.2964383000
H       -0.7335382000      -1.3592403000       0.1570964000
H       -0.3943175000      -0.6321236000      -1.4134825000
C       -0.3730881000      -0.4188314000      -0.4100211000
5

H       -0.8091922000       0.5547767000      -0.0132766000
H        0.7661213000      -0.3107379000      -0.2937525000
H       -0.7383121000      -1.3086913000       0.1791722000
H       -0.4360212000      -0.5865219000      -1.4159782000
C       -0.3609477000      -0.4174208000      -0.4099168000
5

H       -0.8762173000       0.4769269000      -0.0505893000
H        0.7213388000      -0.3698047000      -0.2849376000
H       -0.7371853000      -1.2446705000       0.1936224000
H       -0.4918179000      -0.5435678000      -1.4563958000
C       -0.3471959000      -0.4151580000      -0.4055755000
5

H       -0.9384447000       0.4017866000      -0.0898631000
H        0.6855648000      -0.4241956000      -0.2692118000
H       -0.7358741000      -1.1842524000       0.2039636000
H       -0.5556154000      -0.5048402000      -1.5089670000
C       -0.3339469000      -0.4128578000      -0.4002844000
5

H       -0.9970676000       0.3495749000      -0.1223199000
H        0.6838847000      -0.4675869000      -0.2459885000
H       -0.7415473000      -1.1459033000       0.2161206000
H       -0.6174141000      -0.4730043000      -1.5465582000
C       -0.3234452000      -0.4109746000      -0.3976064000
5

H       -1.0500631000       0.3302143000      -0.1431972000
H        0.7207604000      -0.4962624000      -0.2169454000
H       -0.7577379000      -1.1395640000       0.2324162000
H       -0.6676499000      -0.4516212000      -1.5546565000
C       -0.3167419000      -0.4095201000      -0.3992147000
5

H       -1.0890225000       0.3406540000      -0.1517836000
H        0.7747652000      -0.5075332000      -0.1872050000
H       -0.7806943000      -1.1609436000       0.2473180000
H       -0.6994073000      -0.4435384000      -1.5303035000
C       -0.3136398000      -0.4085852000      -0.4045222000
5

H       -1.1034892000       0.3709993000      -0.1490864000
H        0.8187108000      -0.4999878000      -0.1630102000
H       -0.8021830000      -1.1967635000       0.2513101000
H       -0.7092172000      -0.4501986000      -1.4795540000
C       -0.3137164000      -0.4084513000      -0.4116122000
5

H       -1.0865096000       0.4105878000      -0.1366663000
H        0.8346660000      -0.4745437000      -0.1491234000
H       -0.8147880000      -1.2333949000       0.2375346000
H       -0.6985256000      -0.4716865000      -1.4184306000
C       -0.3165511000      -0.4092835000      -0.4180319000
5

H       -1.0366921000       0.4504060000      -0.1168996000
H        0.8160438000      -0.4343488000      -0.1479990000
H       -0.8145371000      -1.2613604000       0.2046961000
H       -0.6749501000      -0.5072107000      -1.3739249000
C       -0.3214013000      -0.4109226000      -0.4209999000
5

H       -0.9583043000       0.4838603000      -0.0931589000
H        0.7669580000      -0.3841812000      -0.1594651000
H       -0.8012295000      -1.2765814000       0.1570441000
H       -0.6481004000      -0.5551536000      -1.3728480000
C       -0.3274638000      -0.4128920000      -0.4183528000
5

H       -0.8612598000       0.5080130000      -0.0690264000
H        0.7035702000      -0.3296468000      -0.1802181000
H       -0.7782631000      -1.2810030000       0.1036323000
H       -0.6202118000      -0.6104489000      -1.4169235000
C       -0.3347902000      -0.4147362000      -0.4106827000
5

H       -0.7603202000       0.5250354000      -0.0468781000
H        0.6533601000      -0.2759405000      -0.2044887000
H       -0.7521123000      -1.2828295000       0.0567560000
H       -0.5866835000      -0.6627679000      -1.4801456000
C       -0.3442914000      -0.4163799000      -0.4014914000
5

H       -0.6717001000       0.5411376000      -0.0272061000
H        0.6416655000      -0.2275305000      -0.2276277000
H       -0.7300747000      -1.2936468000       0.0284223000
H       -0.5450730000      -0.7009572000      -1.5339432000
C       -0.3563257000      -0.4179328000      -0.3945362000
5

H       -0.6078081000       0.5612333000      -0.0098227000
H        0.6704597000      -0.1904989000      -0.2494120000
H       -0.7159735000      -1.3200721000       0.0252846000
H       -0.4976682000      -0.7176350000      -1.5613555000
C       -0.3695033000      -0.4193608000      -0.3918350000
5

H       -0.5741528000       0.5836598000       0.0041650000
H        0.7192588000      -0.1725639000      -0.2717036000
H       -0.7077340000      -1.3562816000       0.0456893000
H       -0.4493639000      -0.7099395000      -1.5560957000
C       -0.3814041000      -0.4206059000      -0.3935277000
5

H       -0.5703113000       0.6010297000       0.0121524000
H        0.7648400000      -0.1786740000      -0.2946312000
H       -0.7001873000      -1.3874873000       0.0817841000
H       -0.4059278000      -0.6790519000      -1.5204244000
C       -0.3900634000      -0.4217748000      -0.3985353000
5

H       -0.5924252000       0.6054284000       0.0116132000
H        0.7919753000      -0.2087825000      -0.3161225000
H       -0.6892935000      -1.3997429000       0.1238288000
H       -0.3730808000      -0.6302642000      -1.4670031000
C       -0.3943856000      -0.4229338000      -0.4049386000
5

H       -0.6350575000       0.5926073000       0.0016713000
H        0.7937799000      -0.2588287000      -0.3330587000
H       -0.6738638000      -1.3857539000       0.1630375000
H       -0.3554805000      -0.5726741000      -1.4219827000
C       -0.3939576000      -0.4239154000      -0.4099916000
5

H       -0.6923222000       0.5637592000      -0.0160673000
H        0.7704010000      -0.3221390000      -0.3423084000
H       -0.6555975000      -1.3461849000       0.1930865000
H       -0.3560222000      -0.5158565000      -1.4164761000
C       -0.3889002000      -0.4245199000      -0.4109479000
5

H       -0.7586157000       0.5253795000      -0.0375904000
H        0.7294869000      -0.3903008000      -0.3415091000
H       -0.6390412000      -1.2899727000       0.2117829000
H       -0.3764504000      -0.4652895000      -1.4586319000
C       -0.3797977000      -0.4247891000      -0.4074742000
5

H       -0.8287391000       0.4867232000      -0.0579492000
H        0.6877877000      -0.4542490000      -0.3297039000
H       -0.6314867000      -1.2338290000       0.2225720000
H       -0.4164194000      -0.4237016000      -1.5232252000
C       -0.3679100000      -0.4246290000      -0.4024744000
5

H       -0.8969705000       0.4552012000      -0.0735281000
H        0.6682538000      -0.5064286000      -0.3075080000
H       -0.6412514000      -1.1970639000       0.2326415000
H       -0.4713517000      -0.3942887000      -1.5776870000
C       -0.3553310000      -0.4234062000      -0.3995396000
5

H       -0.9561440000       0.4333883000      -0.0830250000
H        0.6854664000      -0.5424268000      -0.2768476000
H       -0.6729788000      -1.1901879000       0.2452452000
H       -0.5335475000      -0.3800325000      -1.6014962000
C       -0.3441443000      -0.4205742000      -0.4006143000
5

H       -0.9985827000       0.4200986000      -0.0865219000
H        0.7311341000      -0.5598006000      -0.2412621000
H       -0.7231262000      -1.2078354000       0.2538899000
H       -0.5946097000      -0.3823958000      -1.5868850000
C       -0.3353009000      -0.4165665000      -0.4055013000
5

H       -1.0182102000       0.4131441000      -0.0841990000
H        0.7813967000      -0.5571365000      -0.2059177000
H       -0.7813274000      -1.2353353000       0.2475102000
H       -0.6470799000      -0.4010631000      -1.5360428000
C       -0.3288045000      -0.4125768000      -0.4126380000
5

H       -1.0120794000       0.4111523000      -0.0758683000
H        0.8141748000      -0.5351011000      -0.1762681000
H       -0.8358209000      -1.2590291000       0.2190254000
H       -0.6861717000      -0.4341544000      -1.4615257000
C       -0.3244379000      -0.4097388000      -0.4199329000
5

H       -0.9809140000       0.4141187000      -0.0613082000
H        0.8170783000      -0.4969373000      -0.1567401000
H       -0.8773191000      -1.2707130000       0.1684973000
H       -0.7123168000      -0.4787773000      -1.3881539000
C       -0.3218435000      -0.4087118000      -0.4249533000
5

H       -0.9290088000       0.4231370000      -0.0409431000
H        0.7882636000      -0.4480387000      -0.1499305000
H       -0.9004279000      -1.2680865000       0.1025198000
H       -0.7313798000      -0.5318161000      -1.3472691000
C       -0.3204660000      -0.4095896000      -0.4253671000
5

H       -0.8636890000       0.4396403000      -0.0163424000
H        0.7372625000      -0.3952415000      -0.1556876000
H       -0.9043194000      -1.2546986000       0.0327539000
H       -0.7468162000      -0.5887525000      -1.3555338000
C       -0.3202705000      -0.4119998000      -0.4206353000
5

H       -0.7940948000       0.4642534000       0.0097342000
H        0.6860776000      -0.3454959000      -0.1704859000
H       -0.8933204000      -1.2399304000      -0.0262852000
H       -0.7524341000      -0.6407081000      -1.4010788000
C       -0.3224939000      -0.4153687000      -0.4130382000
5

H       -0.7291822000       0.4953707000       0.0336452000
H        0.6624778000      -0.3040532000      -0.1892260000
H       -0.8760207000      -1.2371167000      -0.0608595000
H       -0.7391409000      -0.6766216000      -1.4589244000
C       -0.3287587000      -0.4189294000      -0.4059498000
5

H       -0.6758499000       0.5283879000       0.0514674000
H        0.6797165000      -0.2747065000      -0.2098122000
H       -0.8604888000      -1.2568403000      -0.0626485000
H       -0.7032496000      -0.6885966000      -1.5085934000
C       -0.3392302000      -0.4217511000      -0.4016351000
5

H       -0.6381544000       0.5566844000       0.0598320000
H        0.7244197000      -0.2617725000      -0.2342636000
H       -0.8477698000      -1.2975106000      -0.0322620000
H       -0.6470819000      -0.6738253000      -1.5374670000
C       -0.3521616000      -0.4232848000      -0.4006504000
5

H       -0.6175249000       0.5739950000       0.0567649000
H        0.7712887000      -0.2687746000      -0.2642407000
H       -0.8319505000      -1.3442879000       0.0212566000
H       -0.5769382000      -0.6340274000      -1.5395884000
C       -0.3652755000      -0.4238102000      -0.4024316000
5

H       -0.6134444000       0.5767941000       0.0423476000
H        0.8006354000      -0.2958721000      -0.2982317000
H       -0.8067744000      -1.3788972000       0.0846733000
H       -0.5016972000      -0.5747464000      -1.5166324000
C       -0.3767416000      -0.4240874000      -0.4058602000
5

H       -0.6242289000       0.5657993000       0.0191285000
H        0.8029819000      -0.3397354000      -0.3321383000
H       -0.7701239000      -1.3885573000       0.1449168000
H       -0.4314987000      -0.5045057000      -1.4806346000
C       -0.3852313000      -0.4248137000      -0.4093859000
5

H       -0.6476891000       0.5463127000      -0.0078790000
H        0.7778849000      -0.3946817000      -0.3606007000
H       -0.7243819000      -1.3687919000       0.1916476000
H       -0.3755225000      -0.4327263000      -1.4530882000
C       -0.3899203000      -0.4264962000      -0.4112065000
5

H       -0.6814184000       0.5267172000      -0.0321715000
H        0.7331332000      -0.4537346000      -0.3782414000
H       -0.6756733000      -1.3237709000       0.2190708000
H       -0.3399737000      -0.3669874000      -1.4529557000
C       -0.3906297000      -0.4294382000      -0.4102406000
5

H       -0.7222986000       0.5144143000      -0.0480965000
H        0.6847576000      -0.5096512000      -0.3811126000
H       -0.6334064000      -1.2669407000       0.2281964000
H       -0.3283311000      -0.3129023000      -1.4808631000
C       -0.3878852000      -0.4332688000      -0.4073264000
5

H       -0.7654809000       0.5112487000      -0.0532426000
H        0.6542851000      -0.5562266000      -0.3680080000
H       -0.6092896000      -1.2201090000       0.2282127000
H       -0.3418511000      -0.2758167000      -1.5205587000
C       -0.3828129000      -0.4363838000      -0.4049045000
5

H       -0.8044416000       0.5130372000      -0.0486138000
H        0.6580215000      -0.5891424000      -0.3405651000
H       -0.6138277000      -1.2045923000       0.2312450000
H       -0.3787526000      -0.2602556000      -1.5532071000
C       -0.3765978000      -0.4366241000      -0.4053533000
5

H       -0.8328381000       0.5134795000      -0.0368719000
H        0.6938110000      -0.6053644000      -0.3024459000
H       -0.6502782000      -1.2249782000       0.2392614000
H       -0.4342083000      -0.2682849000      -1.5659965000
C       -0.3697233000      -0.4331565000      -0.4093830000
5

H       -0.8464573000       0.5079328000      -0.0207255000
H        0.7424825000      -0.6028926000      -0.2589041000
H       -0.7116593000      -1.2653876000       0.2403644000
H       -0.5014214000      -0.2988922000      -1.5538215000
C       -0.3620900000      -0.4271777000      -0.4157544000
5

H       -0.8439886000       0.4949210000      -0.0022165000
H        0.7820451000      -0.5819709000      -0.2161910000
H       -0.7847268000      -1.3041004000       0.2210970000
H       -0.5730513000      -0.3482509000      -1.5194890000
C       -0.3536904000      -0.4206890000      -0.4224043000
5

H       -0.8270206000       0.4762931000       0.0174659000
H        0.7976411000      -0.5456930000      -0.1803948000
H       -0.8558114000      -1.3256301000       0.1760067000
H       -0.6428490000      -0.4104868000      -1.4734881000
C       -0.3448162000      -0.4153797000      -0.4273830000
5

H       -0.7997777000       0.4567041000       0.0379265000
H        0.7840861000      -0.4995154000      -0.1563210000
H       -0.9139535000      -1.3230729000       0.1083170000
H       -0.7066297000      -0.4787834000      -1.4305890000
C       -0.3359491000      -0.4123350000      -0.4292841000
5

H       -0.7684092000       0.4422288000       0.0591350000
H        0.7464892000      -0.4505150000      -0.1463970000
H       -0.9520721000      -1.2971632000       0.0277947000
H       -0.7609400000      -0.5459219000      -1.4023150000
C       -0.3278863000      -0.4120154000      -0.4277537000
5

H       -0.7394809000       0.4379326000       0.0804632000
H        0.7012042000      -0.4063169000      -0.1495703000
H       -0.9680374000      -1.2557982000      -0.0512848000
H       -0.8006062000      -0.6037830000      -1.3916589000
C       -0.3220631000      -0.4142245000      -0.4237751000
5

H       -0.7179856000       0.4453058000       0.0996407000
H        0.6729105000      -0.3732546000      -0.1615375000
H       -0.9661348000      -1.2138948000      -0.1124931000
H       -0.8192679000      -0.6437696000      -1.3956625000
C       -0.3203074000      -0.4180247000      -0.4191472000
5

H       -0.7060484000       0.4614489000       0.1127733000
H        0.6804067000      -0.3549355000      -0.1783376000
H       -0.9568759000      -1.1909301000      -0.1408762000
H       -0.8124692000      -0.6589952000      -1.4103416000
C       -0.3235107000      -0.4218121000      -0.4154660000
5

H       -0.7030639000       0.4806917000       0.1157563000
H        0.7198282000      -0.3529238000      -0.2001854000
H       -0.9504887000      -1.2018349000      -0.1280974000
H       -0.7795170000      -0.6462561000      -1.4319227000
C       -0.3305981000      -0.4239941000      -0.4133855000
5

H       -0.7067629000       0.4972598000       0.1060339000
H        0.7688115000      -0.3673338000      -0.2293327000
H       -0.9466235000      -1.2445517000      -0.0769975000
H       -0.7235015000      -0.6067284000      -1.4560731000
C       -0.3396520000      -0.4241503000      -0.4126272000
5

H       -0.7144159000       0.5074341000       0.0837044000
H        0.8045093000      -0.3960514000      -0.2657596000
H       -0.9350169000      -1.3002209000      -0.0011855000
H       -0.6507521000      -0.5457089000      -1.4784741000
C       -0.3493133000      -0.4232850000      -0.4124214000
5

H       -0.7237615000       0.5106754000       0.0517662000
H        0.8133328000      -0.4348106000      -0.3062398000
H       -0.9064242000      -1.3469166000       0.0810476000
H       -0.5698617000      -0.4714633000      -1.4963916000
C       -0.3586855000      -0.4228586000      -0.4119842000
5

H       -0.7334447000       0.5096455000       0.0156021000
H        0.7919034000      -0.4782262000      -0.3454453000
H       -0.8585886000      -1.3698087000       0.1531298000
H       -0.4901153000      -0.3933940000      -1.5089660000
C       -0.3670084000      -0.4240023000      -0.4108959000
5

H       -0.7427758000       0.5088783000      -0.0183172000
H        0.7463284000      -0.5208108000      -0.3772516000
H       -0.7956016000      -1.3631150000       0.2033502000
H       -0.4201201000      -0.3205081000      -1.5160284000
C       -0.3737860000      -0.4272871000      -0.4092447000
5

H       -0.7508596000       0.5121614000      -0.0442703000
H        0.6920735000      -0.5578135000      -0.3961245000
H       -0.7260983000      -1.3295567000       0.2260584000
H       -0.3670862000      -0.2606550000      -1.5173780000
C       -0.3790619000      -0.4325422000      -0.4075183000
5

H       -0.7558141000       0.5200847000      -0.0586970000
H        0.6516431000      -0.5858242000      -0.3985709000
H       -0.6622012000      -1.2809497000       0.2232535000
H       -0.3362344000      -0.2201031000      -1.5131456000
C       -0.3834276000      -0.4385849000      -0.4064658000
5

H       -0.7550986000       0.5298166000      -0.0603798000
H        0.6446176000      -0.6024419000      -0.3839023000
H       -0.6180464000      -1.2389134000       0.2063566000
H       -0.3301746000      -0.2031151000      -1.5042786000
C       -0.3873345000      -0.4432052000      -0.4071273000
5

H       -0.7468810000       0.5371185000      -0.0497840000
H        0.6733338000      -0.6051288000      -0.3539488000
H       -0.6056495000      -1.2282841000       0.1921076000
H       -0.3486611000      -0.2114425000      -1.4930760000
C       -0.3901442000      -0.4440268000      -0.4105230000
5

H       -0.7311955000       0.5386337000      -0.0284967000
H        0.7212189000      -0.5917343000      -0.3127717000
H       -0.6285857000      -1.2580404000       0.1876740000
H       -0.3889263000      -0.2438092000      -1.4840289000
C       -0.3903943000      -0.4403019000      -0.4164030000
5

H       -0.7101138000       0.5330271000       0.0009810000
H        0.7658370000      -0.5626136000      -0.2664402000
H       -0.6797254000      -1.3113252000       0.1831078000
H       -0.4465239000      -0.2960646000      -1.4831811000
C       -0.3869985000      -0.4336530000      -0.4227046000
5

H       -0.6872432000       0.5209935000       0.0354169000
H        0.7900755000      -0.5213342000      -0.2220014000
H       -0.7459650000      -1.3616128000       0.1645449000
H       -0.5161501000      -0.3623934000      -1.4935007000
C       -0.3797627000      -0.4265552000      -0.4271508000
5

H       -0.6671111000       0.5047186000       0.0712386000
H        0.7857950000      -0.4737755000      -0.1860111000
H       -0.8139889000      -1.3895832000       0.1259562000
H       -0.5913703000      -0.4361366000      -1.5095143000
C       -0.3692818000      -0.4208798000      -0.4288442000
5

H       -0.6545305000       0.4870124000       0.1049273000
H        0.7544569000      -0.4269359000      -0.1632025000
H       -0.8729822000      -1.3865855000       0.0696003000
H       -0.6639236000      -0.5093499000      -1.5192931000
C       -0.3568764000      -0.4176691000      -0.4282832000
5

H       -0.6537363000       0.4702614000       0.1331196000
H        0.7079949000      -0.3877413000      -0.1552392000
H       -0.9154634000      -1.3529298000       0.0031746000
H       -0.7247538000      -0.5730221000      -1.5126404000
C       -0.3445822000      -0.4172727000      -0.4265482000
5

H       -0.6672596000       0.4556774000       0.1525494000
H        0.6686293000      -0.3615195000      -0.1597689000
H       -0.9382803000      -1.2970787000      -0.0619606000
H       -0.7662788000      -0.6186466000      -1.4867461000
C       -0.3349541000      -0.4193485000      -0.4247529000
5

H       -0.6948910000       0.4432445000       0.1602192000
H        0.6605682000      -0.3507578000      -0.1718358000
H       -0.9446042000      -1.2361936000      -0.1118109000
H       -0.7842305000      -0.6398990000      -1.4470395000
C       -0.3301352000      -0.4227760000      -0.4237808000
5

H       -0.7334039000       0.4323697000       0.1540080000
H        0.6913860000      -0.3557758000      -0.1886317000
H       -0.9447228000      -1.1942863000      -0.1319779000
H       -0.7787910000      -0.6339387000      -1.4059282000
C       -0.3301533000      -0.4257006000      -0.4238567000
5

H       -0.7774011000       0.4229074000       0.1335846000
H        0.7441998000      -0.3758503000      -0.2114030000
H       -0.9491430000      -1.1910399000      -0.1132907000
H       -0.7548681000      -0.6022573000      -1.3803318000
C       -0.3327490000      -0.4263922000      -0.4241972000
5

H       -0.8208735000       0.4159535000       0.1011213000
H        0.7930514000      -0.4083684000      -0.2415715000
H       -0.9561503000      -1.2258319000      -0.0589489000
H       -0.7200616000      -0.5502321000      -1.3856298000
C       -0.3357527000      -0.4247633000      -0.4233049000
5

H       -0.8586840000       0.4137301000       0.0611733000
H        0.8187892000      -0.4483770000      -0.2778075000
H       -0.9530001000      -1.2789235000       0.0154599000
H       -0.6798030000      -0.4850121000      -1.4249422000
C       -0.3386017000      -0.4224736000      -0.4201030000
5

H       -0.8872403000       0.4184668000       0.0194977000
H        0.8132814000      -0.4897715000      -0.3163063000
H       -0.9290679000      -1.3280330000       0.0906155000
H       -0.6349489000      -0.4142388000      -1.4835870000
C       -0.3417351000      -0.4214527000      -0.4150047000
5

H       -0.9041486000       0.4309736000      -0.0186073000
H        0.7787330000      -0.5267189000      -0.3520876000
H       -0.8818717000      -1.3583214000       0.1509714000
H       -0.5854685000      -0.3463383000      -1.5387834000
C       -0.3457502000      -0.4227972000      -0.4094813000
5

H       -0.9075237000       0.4498631000      -0.0493534000
H        0.7272933000      -0.5546554000      -0.3802494000
H       -0.8157275000      -1.3632998000       0.1869793000
H       -0.5339399000      -0.2897216000      -1.5729701000
C       -0.3512467000      -0.4266123000      -0.4049355000
5

H       -0.8959125000       0.4719764000      -0.0703952000
H        0.6799225000      -0.5708180000      -0.3970434000
H       -0.7397035000      -1.3440439000       0.1952024000
H       -0.4852756000      -0.2513063000      -1.5782712000
C       -0.3589326000      -0.4321933000      -0.4022518000
5

H       -0.8690003000       0.4936426000      -0.0801953000
H        0.6589383000      -0.5737570000      -0.4005013000
H       -0.6664746000      -1.3102226000       0.1792432000
H       -0.4451088000      -0.2357574000      -1.5551482000
C       -0.3691710000      -0.4381497000      -0.4019888000
5

H       -0.8284361000       0.5118685000      -0.0776135000
H        0.6733068000      -0.5619099000      -0.3902450000
H       -0.6103818000      -1.2815893000       0.1510749000
H       -0.4184521000      -0.2450399000      -1.5112171000
C       -0.3809510000      -0.4425375000      -0.4046399000
5

H       -0.7780856000       0.5248918000      -0.0620922000
H        0.7118792000      -0.5339229000      -0.3672830000
H       -0.5824831000      -1.2818381000       0.1271045000
H       -0.4086669000      -0.2776384000      -1.4623884000
C       -0.3918005000      -0.4434599000      -0.4102089000
5

H       -0.7235566000       0.5321251000      -0.0343433000
H        0.7538190000      -0.4910850000      -0.3344894000
H       -0.5848564000      -1.3191990000       0.1152427000
H       -0.4168213000      -0.3283197000      -1.4331329000
C       -0.3992342000      -0.4405077000      -0.4170040000
5

H       -0.6713394000       0.5337011000       0.0030261000
H        0.7812524000      -0.4381922000      -0.2966485000
H       -0.6109612000      -1.3764864000       0.1089742000
H       -0.4418989000      -0.3905536000      -1.4448620000
C       -0.4018409000      -0.4352810000      -0.4220592000
5

H       -0.6280788000       0.5299737000       0.0456919000
H        0.7840963000      -0.3823174000      -0.2595127000
H       -0.6510133000      -1.4274540000       0.0980912000
H       -0.4811270000      -0.4588911000      -1.4935668000
C       -0.3992701000      -0.4298773000      -0.4240075000
5

H       -0.6001045000       0.5213055000       0.0885564000
H        0.7605686000      -0.3311895000      -0.2285755000
H       -0.6958565000      -1.4533006000       0.0775491000
H       -0.5293390000      -0.5267536000      -1.5507256000
C       -0.3920434000      -0.4258095000      -0.4239312000
5

H       -0.5928786000       0.5080146000       0.1266497000
H        0.7173557000      -0.2917263000      -0.2079566000
H       -0.7382019000      -1.4459342000       0.0477606000
H       -0.5795855000      -0.5856186000      -1.5882526000
C       -0.3814593000      -0.4239189000      -0.4234606000
5

H       -0.6100330000       0.4903324000       0.1555743000
H        0.6701015000      -0.2684603000      -0.1992209000
H       -0.7730438000      -1.4066041000       0.0129134000
H       -0.6251482000      -0.6275934000      -1.5915504000
C       -0.3695114000      -0.4244021000      -0.4236722000
5

H       -0.6520724000       0.4683432000       0.1715861000
H        0.6411362000      -0.2622022000      -0.2006039000
H       -0.7985736000      -1.3456987000      -0.0195976000
H       -0.6608632000      -0.6471499000      -1.5584083000
C       -0.3586185000      -0.4267901000      -0.4252064000
5

H       -0.7153360000       0.4420920000       0.1716896000
H        0.6485867000      -0.2707967000      -0.2085236000
H       -0.8176080000      -1.2829484000      -0.0393082000
H       -0.6839570000      -0.6418094000      -1.4966363000
C       -0.3506068000      -0.4298190000      -0.4283354000
5

H       -0.7921600000       0.4122242000       0.1542804000
H        0.6911510000      -0.2920334000      -0.2211788000
H       -0.8365905000      -1.2420590000      -0.0351675000
H       -0.6955297000      -0.6130749000      -1.4249190000
C       -0.3453768000      -0.4316111000      -0.4324342000
5

H       -0.8725666000       0.3809181000       0.1203160000
H        0.7482418000      -0.3242358000      -0.2393191000
H       -0.8583301000      -1.2359935000      -0.0027695000
H       -0.7021869000      -0.5671082000      -1.3733415000
C       -0.3412473000      -0.4308842000      -0.4353635000
5

H       -0.9466904000       0.3521806000       0.0740656000
H        0.7958855000      -0.3642163000      -0.2635790000
H       -0.8759199000      -1.2577381000       0.0498016000
H       -0.7126287000      -0.5123130000      -1.3705239000
C       -0.3368827000      -0.4281258000      -0.4343461000
5

H       -1.0067281000       0.3309158000       0.0223894000
H        0.8183013000      -0.4068080000      -0.2927380000
H       -0.8784474000      -1.2900280000       0.1066554000
H       -0.7268836000      -0.4552423000      -1.4166763000
C       -0.3325270000      -0.4250811000      -0.4287086000
5

H       -1.0475638000       0.3212048000      -0.0273747000
H        0.8103304000      -0.4461052000      -0.3239607000
H       -0.8592228000      -1.3180655000       0.1530291000
H       -0.7348810000      -0.4015939000      -1.4830060000
C       -0.3295845000      -0.4233528000      -0.4204834000
5

H       -1.0663400000       0.3250750000      -0.0693283000
H        0.7769208000      -0.4767051000      -0.3538223000
H       -0.8177573000      -1.3333608000       0.1794109000
H       -0.7275763000      -0.3578528000      -1.5397188000
C       -0.3295112000      -0.4237335000      -0.4121570000
5

H       -1.0620647000       0.3424844000      -0.0994858000
H        0.7325611000      -0.4944667000      -0.3792550000
H       -0.7587222000      -1.3334102000       0.1819556000
H       -0.7023148000      -0.3297702000      -1.5699210000
C       -0.3334377000      -0.4262947000      -0.4054177000
5

H       -1.0356500000       0.3719151000      -0.1153152000
H        0.6979337000      -0.4967375000      -0.3981838000
H       -0.6910403000      -1.3220075000       0.1626421000
H       -0.6614495000      -0.3211953000      -1.5676677000
C       -0.3420775000      -0.4304899000      -0.4013181000
5

H       -0.9899362000       0.4106649000      -0.1153510000
H        0.6893711000      -0.4819367000      -0.4095444000
H       -0.6267235000      -1.3105750000       0.1299147000
H       -0.6104938000      -0.3337895000      -1.5348988000
C       -0.3550920000      -0.4351261000      -0.4006170000
5

H       -0.9292990000       0.4545096000      -0.0994052000
H        0.7068675000      -0.4495611000      -0.4125813000
H       -0.5773466000      -1.3160244000       0.0969859000
H       -0.5572875000      -0.3666058000      -1.4823653000
C       -0.3704826000      -0.4385500000      -0.4036005000
5

H       -0.8590073000       0.4973142000      -0.0693525000
H        0.7355511000      -0.4016856000      -0.4066602000
H       -0.5485101000      -1.3488981000       0.0743245000
H       -0.5110773000      -0.4157053000      -1.4332466000
C       -0.3853104000      -0.4395174000      -0.4090969000
5

H       -0.7849724000       0.5317011000      -0.0296794000
H        0.7580604000      -0.3438156000      -0.3920994000
H       -0.5382666000      -1.4010953000       0.0627508000
H       -0.4796786000      -0.4754605000      -1.4187151000
C       -0.3971282000      -0.4380992000      -0.4141536000
5

H       -0.7140098000       0.5511871000       0.0133867000
H        0.7629547000      -0.2836603000      -0.3707060000
H       -0.5412830000      -1.4519030000       0.0569413000
H       -0.4658218000      -0.5404324000      -1.4523212000
C       -0.4046214000      -0.4352998000      -0.4165108000
5

H       -0.6539011000       0.5526251000       0.0539785000
H        0.7464366000      -0.2293287000      -0.3455697000
H       -0.5524838000      -1.4826886000       0.0523097000
H       -0.4676403000      -0.6035271000      -1.5129967000
C       -0.4074007000      -0.4323346000      -0.4168006000
5

H        0.5243218000      -0.9520365000      -0.2558235000
H       -0.8400434000       0.1426234000       0.6015669000
H        0.0798110000       0.7045395000      -0.6095257000
H       -1.1544816000      -0.6082372000      -1.0776454000
C       -0.3640870000      -0.1323559000      -0.2611451000
5

H        0.5240510000      -0.9289334000      -0.1644923000
H       -0.7560851000       0.0942945000       0.6223003000
H        0.0635526000       0.7348345000      -0.6757111000
H       -1.1460125000      -0.5418034000      -1.1115551000
C       -0.3708009000      -0.1384256000      -0.2623446000
5

H        0.4955425000      -0.8850099000      -0.0744848000
H       -0.7002752000       0.0536630000       0.6942741000
H        0.0558277000       0.7812743000      -0.7497143000
H       -1.1152670000      -0.4642623000      -1.1126074000
C       -0.3753665000      -0.1491792000      -0.2698391000
5

H        0.4492413000      -0.8304419000       0.0024631000
H       -0.6672837000       0.0216230000       0.7891337000
H        0.0477587000       0.8189741000      -0.8121528000
H       -1.0727671000      -0.3888682000      -1.0857149000
C       -0.3774796000      -0.1606340000      -0.2814771000
5

H        0.4033849000      -0.7815521000       0.0591083000
H       -0.6505861000      -0.0021359000       0.8676281000
H        0.0367487000       0.8348937000      -0.8498271000
H       -1.0391714000      -0.3308275000      -1.0492539000
C       -0.3772667000      -0.1690207000      -0.2929189000
5

H        0.3779053000      -0.7555703000       0.0945630000
H       -0.6484500000      -0.0159208000       0.9075676000
H        0.0240613000       0.8256722000      -0.8565703000
H       -1.0407626000      -0.3029763000      -1.0296193000
C       -0.3744460000      -0.1716741000      -0.3005274000
5

H        0.3832591000      -0.7620160000       0.1100253000
H       -0.6603549000      -0.0179526000       0.9016664000
H        0.0124536000       0.7941124000      -0.8318968000
H       -1.0879124000      -0.3102264000      -1.0367921000
C       -0.3693003000      -0.1677671000      -0.3029939000
5

H        0.4136038000      -0.7974264000       0.1030893000
H       -0.6847357000      -0.0076919000       0.8505846000
H        0.0058879000       0.7495561000      -0.7814928000
H       -1.1616902000      -0.3484216000      -1.0527276000
C       -0.3633930000      -0.1587697000      -0.3012092000
5

H        0.4523959000      -0.8487666000       0.0696629000
H       -0.7193199000       0.0139165000       0.7625327000
H        0.0108920000       0.7113630000      -0.7192917000
H       -1.2324121000      -0.4073990000      -1.0542965000
C       -0.3585669000      -0.1481763000      -0.2962915000
5

H        0.4825561000      -0.9007768000       0.0098150000
H       -0.7639771000       0.0453092000       0.6588304000
H        0.0360836000       0.7052620000      -0.6645279000
H       -1.2780688000      -0.4748413000      -1.0303431000
C       -0.3559705000      -0.1403328000      -0.2893589000
5

H        0.4918668000      -0.9410000000      -0.0702115000
H       -0.8244057000       0.0863413000       0.5753610000
H        0.0835468000       0.7407737000      -0.6287118000
H       -1.2873126000      -0.5393904000      -0.9810603000
C       -0.3552270000      -0.1380267000      -0.2829665000
5

H        0.4747256000      -0.9620948000      -0.1596452000
H       -0.9057443000       0.1371849000       0.5401267000
H        0.1414757000       0.7975859000      -0.6092967000
H       -1.2578786000      -0.5925860000      -0.9142281000
C       -0.3546335000      -0.1408937000      -0.2799312000
5

H        0.4336598000      -0.9632336000      -0.2458140000
H       -0.9959376000       0.1914354000       0.5463134000
H        0.1926328000       0.8465683000      -0.5995323000
H       -1.1967991000      -0.6302020000      -0.8434191000
C       -0.3533763000      -0.1463735000      -0.2801722000
5

H        0.3806077000      -0.9512952000      -0.3165769000
H       -1.0710075000       0.2371058000       0.5690636000
H        0.2243211000       0.8687617000      -0.5956242000
H       -1.1229893000      -0.6540773000      -0.7872998000
C       -0.3518167000      -0.1511351000      -0.2813727000
5

H        0.3351210000      -0.9402802000      -0.3626071000
H       -1.1132818000       0.2644378000       0.5904011000
H        0.2302300000       0.8567383000      -0.5966044000
H       -1.0658751000      -0.6729222000      -0.7670269000
C       -0.3500799000      -0.1518277000      -0.2811111000
5

H        0.3153509000      -0.9445156000      -0.3787258000
H       -1.1154009000       0.2682193000       0.6015904000
H        0.2098821000       0.8121679000      -0.6031290000
H       -1.0477642000      -0.6940467000      -0.7957332000
C       -0.3483948000      -0.1463367000      -0.2779301000
5

H        0.3253482000      -0.9666791000      -0.3630600000
H       -1.0773843000       0.2471599000       0.5993716000
H        0.1697723000       0.7469938000      -0.6178303000
H       -1.0634988000      -0.7105392000      -0.8662168000
C       -0.3480786000      -0.1359122000      -0.2720968000
5

H        0.3533698000      -0.9947672000      -0.3166245000
H       -1.0061095000       0.2042560000       0.5859860000
H        0.1252975000       0.6862877000      -0.6474370000
H       -1.0904847000      -0.7076588000      -0.9561216000
C       -0.3507580000      -0.1251575000      -0.2650268000
5

H        0.3828558000      -1.0122942000      -0.2446970000
H       -0.9180445000       0.1483636000       0.5740528000
H        0.0954869000       0.6594158000      -0.7014050000
H       -1.1098108000      -0.6773242000      -1.0423680000
C       -0.3568455000      -0.1193460000      -0.2584809000
5

H        0.4017000000      -1.0079673000      -0.1568525000
H       -0.8386985000       0.0938126000       0.5900313000
H        0.0864760000       0.6730462000      -0.7786437000
H       -1.1123273000      -0.6207766000      -1.1075605000
C       -0.3644656000      -0.1210858000      -0.2554300000
5

H        0.4049035000      -0.9787244000      -0.0652011000
H       -0.7863982000       0.0525517000       0.6542721000
H        0.0882536000       0.7059220000      -0.8598399000
H       -1.0964006000      -0.5453330000      -1.1407371000
C       -0.3709554000      -0.1292376000      -0.2591087000
5

H        0.3941837000      -0.9292473000       0.0180065000
H       -0.7573730000       0.0269342000       0.7486094000
H        0.0902990000       0.7349076000      -0.9221692000
H       -1.0660790000      -0.4621026000      -1.1383019000
C       -0.3755519000      -0.1407300000      -0.2691813000
5

H        0.3764810000      -0.8701164000       0.0831074000
H       -0.7404897000       0.0151877000       0.8334616000
H        0.0888271000       0.7482713000      -0.9513442000
H       -1.0321859000      -0.3851224000      -1.1070843000
C       -0.3785462000      -0.1523615000      -0.2821379000
5

H        0.3616878000      -0.8150199000       0.1251034000
H       -0.7308069000       0.0165455000       0.8815943000
H        0.0844918000       0.7433651000      -0.9419314000
H       -1.0145218000      -0.3296999000      -1.0675591000
C       -0.3795762000      -0.1614099000      -0.2940078000
5

H        0.3594758000      -0.7772050000       0.1437049000
H       -0.7277621000       0.0307286000       0.8824633000
H        0.0796711000       0.7229687000      -0.8951612000
H       -1.0356628000      -0.3075236000      -1.0456198000
C       -0.3778052000      -0.1659916000      -0.3016031000
5

H        0.3752605000      -0.7656525000       0.1409356000
H       -0.7315640000       0.0567448000       0.8356871000
H        0.0778218000       0.6948081000      -0.8186491000
H       -1.0996302000      -0.3209845000      -1.0474497000
C       -0.3736231000      -0.1657169000      -0.3039035000
5

H        0.4066416000      -0.7820407000       0.1181550000
H       -0.7424813000       0.0924553000       0.7489399000
H        0.0845431000       0.6735811000      -0.7274651000
H       -1.1832615000      -0.3629541000      -1.0541371000
C       -0.3692218000      -0.1620979000      -0.3019906000
5

H        0.4431975000      -0.8201232000       0.0758229000
H       -0.7629011000       0.1354864000       0.6419626000
H        0.1072182000       0.6782789000      -0.6410946000
H       -1.2563905000      -0.4212393000      -1.0459039000
C       -0.3666791000      -0.1580789000      -0.2975850000
5

H        0.4707917000      -0.8685087000       0.0162260000
H       -0.8004176000       0.1859785000       0.5492590000
H        0.1480025000       0.7161952000      -0.5732476000
H       -1.2983447000      -0.4833146000      -1.0151702000
C       -0.3660868000      -0.1562930000      -0.2932617000
5

H        0.4774687000      -0.9152784000      -0.0546686000
H       -0.8630102000       0.2454812000       0.5022048000
H        0.1975792000       0.7719515000      -0.5271083000
H       -1.2999385000      -0.5392202000      -0.9644713000
C       -0.3657602000      -0.1574161000      -0.2916769000
5

H        0.4577589000      -0.9518558000      -0.1280845000
H       -0.9434270000       0.3068306000       0.5001964000
H        0.2415651000       0.8214664000      -0.5012741000
H       -1.2617117000      -0.5826706000      -0.9027747000
C       -0.3645957000      -0.1600723000      -0.2928821000
5

H        0.4143259000      -0.9749684000      -0.1942437000
H       -1.0202947000       0.3543463000       0.5204605000
H        0.2688083000       0.8472749000      -0.4941321000
H       -1.1944823000      -0.6117756000      -0.8439733000
C       -0.3627673000      -0.1619111000      -0.2947544000
5

H        0.3574914000      -0.9872861000      -0.2437500000
H       -1.0751235000       0.3757223000       0.5441272000
H        0.2733819000       0.8411311000      -0.5042822000
H       -1.1212821000      -0.6305557000      -0.8067234000
C       -0.3602626000      -0.1606445000      -0.2950489000
5

H        0.3022932000      -0.9965656000      -0.2689013000
H       -1.0983685000       0.3656873000       0.5612816000
H        0.2545296000       0.8027304000      -0.5303679000
H       -1.0708879000      -0.6475921000      -0.8103862000
C       -0.3566654000      -0.1544326000      -0.2920675000
5

H        0.2619472000      -1.0111621000      -0.2650825000
H       -1.0871742000       0.3241523000       0.5671155000
H        0.2180369000       0.7409706000      -0.5715988000
H       -1.0561000000      -0.6651438000      -0.8617221000
C       -0.3527365000      -0.1431237000      -0.2852926000
5

H        0.2408807000      -1.0326655000      -0.2319258000
H       -1.0442403000       0.2557648000       0.5607213000
H        0.1783291000       0.6768686000      -0.6296430000
H       -1.0639577000      -0.6725458000      -0.9464953000
C       -0.3509208000      -0.1296351000      -0.2757344000
5

H        0.2345167000      -1.0534891000      -0.1739657000
H       -0.9803808000       0.1713806000       0.5486854000
H        0.1539746000       0.6368275000      -0.7089244000
H       -1.0742801000      -0.6580488000      -1.0402808000
C       -0.3531798000      -0.1187200000      -0.2652451000
5

H        0.2355072000      -1.0629916000      -0.1001309000
H       -0.9177671000       0.0881250000       0.5510814000
H        0.1517192000       0.6293044000      -0.8065737000
H       -1.0747161000      -0.6185071000      -1.1214252000
C       -0.3586381000      -0.1136852000      -0.2568202000
5

H        0.2389438000      -1.0544924000      -0.0218151000
H       -0.8808160000       0.0223951000       0.5933400000
H        0.1614700000       0.6385837000      -0.9034692000
H       -1.0613095000      -0.5581880000      -1.1749978000
C       -0.3643175000      -0.1147903000      -0.2544988000
5

H        0.2435712000      -1.0275195000       0.0496092000
H       -0.8733009000      -0.0190992000       0.6736618000
H        0.1713895000       0.6467725000      -0.9761764000
H       -1.0354789000      -0.4854472000      -1.1929351000
C       -0.3686818000      -0.1204340000      -0.2598198000
5

H        0.2504955000      -0.9864835000       0.1049957000
H       -0.8799712000      -0.0363559000       0.7587701000
H        0.1766375000       0.6457411000      -1.0095558000
H       -1.0031702000      -0.4112708000      -1.1750069000
C       -0.3721990000      -0.1286404000      -0.2705108000
5

H        0.2615442000      -0.9386311000       0.1387421000
H       -0.8873544000      -0.0305845000       0.8170488000
H        0.1777600000       0.6352206000      -0.9979208000
H       -0.9765652000      -0.3487797000      -1.1321842000
C       -0.3751769000      -0.1375748000      -0.2830023000
5

H        0.2784883000      -0.8927411000       0.1491505000
H       -0.8892674000      -0.0038176000       0.8325419000
H        0.1778309000       0.6195913000      -0.9431066000
H       -0.9750822000      -0.3113245000      -1.0887103000
C       -0.3769110000      -0.1455756000      -0.2936209000
5

H        0.3028144000      -0.8580867000       0.1380766000
H       -0.8834998000       0.0406282000       0.8010365000
H        0.1811999000       0.6068308000      -0.8538746000
H       -1.0158852000      -0.3071631000      -1.0690798000
C       -0.3766354000      -0.1515624000      -0.2993758000
5

H        0.3349421000      -0.8424932000       0.1097422000
H       -0.8701002000       0.0980817000       0.7269513000
H        0.1932191000       0.6082946000      -0.7454405000
H       -1.0935661000      -0.3341456000      -1.0730952000
C       -0.3752853000      -0.1556197000      -0.2997313000
5

H        0.3720456000      -0.8491638000       0.0687558000
H       -0.8529778000       0.1632915000       0.6255311000
H        0.2179351000       0.6342026000      -0.6351646000
H       -1.1802259000      -0.3813172000      -1.0798448000
C       -0.3749776000      -0.1588163000      -0.2966531000
5

H        0.4063885000      -0.8744783000       0.0190364000
H       -0.8430747000       0.2335010000       0.5263701000
H        0.2525077000       0.6831868000      -0.5357605000
H       -1.2479086000      -0.4354399000      -1.0722657000
C       -0.3762533000      -0.1622215000      -0.2933212000
5

H        0.4275468000      -0.9096367000      -0.0352733000
H       -0.8550164000       0.3101770000       0.4633963000
H        0.2869685000       0.7401914000      -0.4548459000
H       -1.2804075000      -0.4856174000      -1.0450022000
C       -0.3775329000      -0.1663480000      -0.2927429000
5

H        0.4274648000      -0.9451876000      -0.0888879000
H       -0.8918391000       0.3891692000       0.4476614000
H        0.3114506000       0.7875977000      -0.3981525000
H       -1.2724727000      -0.5245458000      -1.0010255000
C       -0.3774975000      -0.1707746000      -0.2955598000
5

H        0.4039376000      -0.9747425000      -0.1356853000
H       -0.9400762000       0.4538118000       0.4635330000
H        0.3201134000       0.8132521000      -0.3697354000
H       -1.2281470000      -0.5485278000      -0.9488773000
C       -0.3762630000      -0.1739279000      -0.2999157000
5

H        0.3610981000      -0.9964397000      -0.1693906000
H       -0.9837478000       0.4870074000       0.4918760000
H        0.3105695000       0.8110684000      -0.3713298000
H       -1.1622898000      -0.5582840000      -0.9028650000
C       -0.3740699000      -0.1739568000      -0.3033831000
5

H        0.3079556000      -1.0128343000      -0.1843236000
H       -1.0128621000       0.4800490000       0.5207027000
H        0.2837250000       0.7806018000      -0.4024548000
H       -1.1010674000      -0.5602568000      -0.8833604000
C       -0.3703922000      -0.1693372000      -0.3037613000
5

H        0.2551283000      -1.0289974000      -0.1765050000
H       -1.0226701000       0.4317889000       0.5431769000
H        0.2457595000       0.7291472000      -0.4608955000
H       -1.0690770000      -0.5624209000      -0.9081587000
C       -0.3649741000      -0.1594902000      -0.2995018000
5

H        0.2102969000      -1.0482375000      -0.1452158000
H       -1.0119976000       0.3470852000       0.5553934000
H        0.2106499000       0.6749693000      -0.5440807000
H       -1.0671772000      -0.5636481000      -0.9749116000
C       -0.3596612000      -0.1461745000      -0.2907501000
5

H        0.1756783000      -1.0682588000      -0.0944166000
H       -0.9842198000       0.2374183000       0.5577457000
H        0.1955147000       0.6408791000      -0.6502846000
H       -1.0761700000      -0.5548880000      -1.0605710000
C       -0.3574058000      -0.1332229000      -0.2792875000
5

H        0.1500568000      -1.0825566000      -0.0325798000
H       -0.9504744000       0.1211151000       0.5594386000
H        0.2044513000       0.6322004000      -0.7721430000
H       -1.0790101000      -0.5306524000      -1.1394712000
C       -0.3589456000      -0.1236290000      -0.2679496000
5

H        0.1324841000      -1.0854628000       0.0294633000
H       -0.9285369000       0.0182278000       0.5782503000
H        0.2245302000       0.6326646000      -0.8892767000
H       -1.0685090000      -0.4921638000      -1.1938434000
C       -0.3622259000      -0.1180841000      -0.2605239000
5

H        0.1238590000      -1.0751959000       0.0812931000
H       -0.9295373000      -0.0582744000       0.6237116000
H        0.2418446000       0.6262713000      -0.9781967000
H       -1.0443653000      -0.4445756000      -1.2142998000
C       -0.3652444000      -0.1160503000      -0.2596966000
5

H        0.1260197000      -1.0535354000       0.1150370000
H       -0.9478069000      -0.1032944000       0.6822437000
H        0.2503817000       0.6074448000      -1.0236292000
H       -1.0108029000      -0.3950368000      -1.1989241000
C       -0.3677720000      -0.1167376000      -0.2651101000
5

H        0.1401373000      -1.0243267000       0.1264884000
H       -0.9701010000      -0.1150475000       0.7302971000
H        0.2504437000       0.5783354000      -1.0196831000
H       -0.9771530000      -0.3523484000      -1.1548564000
C       -0.3702610000      -0.1194137000      -0.2743283000
5

H        0.1659892000      -0.9927596000       0.1153593000
H       -0.9858915000      -0.0942365000       0.7509997000
H        0.2461497000       0.5459974000      -0.9684009000
H       -0.9597010000      -0.3267914000      -1.1016719000
C       -0.3725549000      -0.1233130000      -0.2840943000
5

H        0.2021464000      -0.9651327000       0.0848690000
H       -0.9888556000      -0.0443775000       0.7370890000
H        0.2449075000       0.5220685000      -0.8800539000
H       -0.9780823000      -0.3275465000      -1.0669358000
C       -0.3740380000      -0.1278175000      -0.2908907000
5

H        0.2461653000      -0.9477120000       0.0406670000
H       -0.9761470000       0.0284655000       0.6894834000
H        0.2570813000       0.5223480000      -0.7726093000
H       -1.0379331000      -0.3560703000      -1.0635278000
C       -0.3751413000      -0.1330961000      -0.2926783000
5

H        0.2938508000      -0.9440709000      -0.0108424000
H       -0.9496027000       0.1163467000       0.6180206000
H        0.2895632000       0.5589694000      -0.6639886000
H       -1.1191826000      -0.4025370000      -1.0771838000
C       -0.3776229000      -0.1400259000      -0.2905142000
5

H        0.3382176000      -0.9526010000      -0.0638850000
H       -0.9180343000       0.2116062000       0.5428780000
H        0.3343467000       0.6259796000      -0.5628222000
H       -1.1930391000      -0.4523443000      -1.0869069000
C       -0.3819017000      -0.1488251000      -0.2876169000
5

H        0.3706429000      -0.9671717000      -0.1134029000
H       -0.8944240000       0.3094066000       0.4882447000
H        0.3727380000       0.7012760000      -0.4730931000
H       -1.2398887000      -0.4936105000      -1.0810984000
C       -0.3862405000      -0.1587437000      -0.2870820000
5

H        0.3843762000      -0.9808282000      -0.1546879000
H       -0.8851633000       0.4037208000       0.4656448000
H        0.3910683000       0.7638210000      -0.4010225000
H       -1.2513705000      -0.5190643000      -1.0573320000
C       -0.3890906000      -0.1687035000      -0.2899542000
5

H        0.3773513000      -0.9892592000      -0.1834698000
H       -0.8856825000       0.4813363000       0.4683684000
H        0.3849969000       0.8014103000      -0.3536148000
H       -1.2278398000      -0.5254130000      -1.0193756000
C       -0.3902678000      -0.1772083000      -0.2951236000
5

H        0.3527482000      -0.9923373000      -0.1961084000
H       -0.8884658000       0.5270106000       0.4841900000
H        0.3555847000       0.8087614000      -0.3360901000
H       -1.1786178000      -0.5133428000      -0.9770279000
C       -0.3899765000      -0.1824874000      -0.3006075000
5

H        0.3178297000      -0.9940453000      -0.1898042000
H       -0.8891628000       0.5310731000       0.5047401000
H        0.3067264000       0.7853321000      -0.3511826000
H       -1.1242452000      -0.4886107000      -0.9478641000
C       -0.3877940000      -0.1828652000      -0.3042328000
5

H        0.2811274000      -1.0005170000      -0.1632295000
H       -0.8867725000       0.4910351000       0.5259866000
H        0.2462703000       0.7367752000      -0.3990881000
H       -1.0913939000      -0.4607055000      -0.9534234000
C       -0.3829401000      -0.1772952000      -0.3039466000
5

H        0.2484363000      -1.0157251000      -0.1178065000
H       -0.8823317000       0.4110540000       0.5466627000
H        0.1896398000       0.6801979000      -0.4779785000
H       -1.0917096000      -0.4352940000      -1.0011868000
C       -0.3761315000      -0.1667540000      -0.2990488000
5

H        0.2205606000      -1.0374253000      -0.0591110000
H       -0.8783748000       0.3021592000       0.5679501000
H        0.1586459000       0.6438344000      -0.5859044000
H       -1.1109503000      -0.4107368000      -1.0727853000
C       -0.3702507000      -0.1548650000      -0.2908767000
5

H        0.1953195000      -1.0583017000       0.0032704000
H       -0.8791882000       0.1813688000       0.5939812000
H        0.1638389000       0.6423329000      -0.7173921000
H       -1.1285479000      -0.3851319000      -1.1404963000
C       -0.3673678000      -0.1450620000      -0.2817603000
5

H        0.1712874000      -1.0712971000       0.0581922000
H       -0.8894160000       0.0666262000       0.6291849000
H        0.1919068000       0.6579995000      -0.8524792000
H       -1.1329608000      -0.3600662000      -1.1844732000
C       -0.3668241000      -0.1378255000      -0.2744787000
5

H        0.1495378000      -1.0729975000       0.0959059000
H       -0.9096306000      -0.0290122000       0.6710057000
H        0.2235361000       0.6666310000      -0.9639200000
H       -1.1209630000      -0.3387912000      -1.1950829000
C       -0.3673101000      -0.1322329000      -0.2710959000
5

H        0.1330631000      -1.0637450000       0.1099673000
H       -0.9347939000      -0.0975843000       0.7084080000
H        0.2478481000       0.6570911000      -1.0326881000
H       -1.0945316000      -0.3246802000      -1.1707408000
C       -0.3684207000      -0.1277055000      -0.2718749000
5

H        0.1254400000      -1.0467630000       0.0981173000
H       -0.9579479000      -0.1341166000       0.7295093000
H        0.2611170000       0.6284190000      -1.0502673000
H       -1.0608641000      -0.3211734000      -1.1180945000
C       -0.3701232000      -0.1240206000      -0.2757850000
5

H        0.1298738000      -1.0275304000       0.0624360000
H       -0.9733206000      -0.1363656000       0.7274832000
H        0.2632109000       0.5849050000      -1.0158076000
H       -1.0345091000      -0.3325095000      -1.0544993000
C       -0.3719388000      -0.1209108000      -0.2810415000
5

H        0.1484817000      -1.0127648000       0.0086650000
H       -0.9770189000      -0.1051156000       0.7014879000
H        0.2571311000       0.5355349000      -0.9360127000
H       -1.0356149000      -0.3637324000      -1.0054756000
C       -0.3729322000      -0.1180771000      -0.2853496000
5

H        0.1810682000      -1.0078514000      -0.0554099000
H       -0.9675479000      -0.0441018000       0.6567235000
H        0.2524751000       0.4972433000      -0.8285012000
H       -1.0747236000      -0.4160644000      -0.9871025000
C       -0.3731331000      -0.1160737000      -0.2869699000
5

H        0.2235390000      -1.0134745000      -0.1217645000
H       -0.9474470000       0.0404397000       0.6053799000
H        0.2679160000       0.4954991000      -0.7208947000
H       -1.1379943000      -0.4801077000      -0.9918533000
C       -0.3747152000      -0.1172474000      -0.2859121000
5

H        0.2679117000      -1.0247455000      -0.1830117000
H       -0.9241887000       0.1409641000       0.5652653000
H        0.3146778000       0.5454386000      -0.6325730000
H       -1.1997964000      -0.5395876000      -1.0023621000
C       -0.3794762000      -0.1240134000      -0.2841233000
5

H        0.3051374000      -1.0341456000      -0.2326092000
H       -0.9051315000       0.2493025000       0.5500659000
H        0.3746240000       0.6293621000      -0.5626042000
H       -1.2414455000      -0.5808502000      -1.0068097000
C       -0.3860838000      -0.1359772000      -0.2843735000
5

H        0.3286650000      -1.0353864000      -0.2654066000
H       -0.8895268000       0.3538610000       0.5573507000
H        0.4192733000       0.7148778000      -0.5066770000
H       -1.2547479000      -0.5962537000      -1.0004028000
C       -0.3923473000      -0.1506145000      -0.2876555000
5

H        0.3363582000      -1.0258192000      -0.2781969000
H       -0.8708762000       0.4389844000       0.5729880000
H        0.4330276000       0.7795168000      -0.4661727000
H       -1.2394795000      -0.5834800000      -0.9834154000
C       -0.3973422000      -0.1651405000      -0.2929128000
5

H        0.3306708000      -1.0073682000      -0.2697290000
H       -0.8448575000       0.4907522000       0.5844820000
H        0.4122688000       0.8125340000      -0.4445863000
H       -1.2029171000      -0.5451190000      -0.9612704000
C       -0.4007223000      -0.1771046000      -0.2984517000
5

H        0.3177487000      -0.9863440000      -0.2404520000
H       -0.8117589000       0.5013004000       0.5861837000
H        0.3593832000       0.8099921000      -0.4448146000
H       -1.1614337000      -0.4890137000      -0.9462403000
C       -0.4018049000      -0.1843272000      -0.3024860000
5

H        0.3050120000      -0.9714244000      -0.1924225000
H       -0.7754802000       0.4695065000       0.5787451000
H        0.2809616000       0.7730863000      -0.4684685000
H       -1.1372844000      -0.4262971000      -0.9552739000
C       -0.3995698000      -0.1851505000      -0.3033390000
5

H        0.2970497000      -0.9691042000      -0.1297851000
H       -0.7427850000       0.4014370000       0.5689924000
H        0.1902472000       0.7116317000      -0.5161186000
H       -1.1424129000      -0.3652475000      -0.9961519000
C       -0.3939439000      -0.1796669000      -0.3005346000
5

H        0.2927672000      -0.9791828000      -0.0597982000
H       -0.7228264000       0.3110964000       0.5706859000
H        0.1107836000       0.6512776000      -0.5892238000
H       -1.1666229000      -0.3093589000      -1.0552680000
C       -0.3869000000      -0.1709306000      -0.2956389000
5

H        0.2873310000      -0.9953118000       0.0071257000
H       -0.7244119000       0.2169762000       0.5998885000
H        0.0690228000       0.6268812000      -0.6911693000
H       -1.1915322000      -0.2624079000      -1.1089067000
C       -0.3810573000      -0.1636380000      -0.2908340000
5

H        0.2766182000      -1.0103326000       0.0597987000
H       -0.7495578000       0.1324824000       0.6592361000
H        0.0703964000       0.6452445000      -0.8148058000
H       -1.2058477000      -0.2299663000      -1.1395177000
C       -0.3773046000      -0.1596196000      -0.2874758000
5

H        0.2593752000      -1.0199578000       0.0893588000
H       -0.7903992000       0.0624512000       0.7294249000
H        0.0979465000       0.6784736000      -0.9336600000
H       -1.2058938000      -0.2169340000      -1.1390121000
C       -0.3750813000      -0.1568874000      -0.2861016000
5

H        0.2369787000      -1.0229201000       0.0909939000
H       -0.8350680000       0.0090866000       0.7847950000
H        0.1347435000       0.7010040000      -1.0212804000
H       -1.1923539000      -0.2257968000      -1.1065653000
C       -0.3740203000      -0.1533770000      -0.2864426000
5

H        0.2128346000      -1.0206557000       0.0644331000
H       -0.8738026000      -0.0251132000       0.8088927000
H        0.1709093000       0.7019998000      -1.0636562000
H       -1.1703216000      -0.2565533000      -1.0484136000
C       -0.3739706000      -0.1482681000      -0.2877475000
5

H        0.1919910000      -1.0173476000       0.0137097000
H       -0.9000585000      -0.0382035000       0.7961218000
H        0.2002808000       0.6791060000      -1.0564494000
H       -1.1514767000      -0.3077363000      -0.9791747000
C       -0.3744075000      -0.1412980000      -0.2890215000
5

H        0.1801437000      -1.0188375000      -0.0539522000
H       -0.9099118000      -0.0294491000       0.7491019000
H        0.2182804000       0.6344191000      -1.0016411000
H       -1.1520370000      -0.3776837000      -0.9185791000
C       -0.3743928000      -0.1323534000      -0.2892680000
5

H        0.1811171000      -1.0291190000      -0.1299928000
H       -0.9026929000       0.0006924000       0.6786374000
H        0.2235659000       0.5760075000      -0.9087695000
H       -1.1796226000      -0.4626317000      -0.8790744000
C       -0.3735509000      -0.1220544000      -0.2882671000
5

H        0.1940463000      -1.0464563000      -0.2058433000
H       -0.8835807000       0.0509803000       0.6062253000
H        0.2245440000       0.5238401000      -0.7999398000
H       -1.2228156000      -0.5517185000      -0.8583276000
C       -0.3730390000      -0.1130318000      -0.2868835000
5

H        0.2136209000      -1.0638548000      -0.2730393000
H       -0.8645742000       0.1200731000       0.5619226000
H        0.2440508000       0.5103377000      -0.7081788000
H       -1.2620043000      -0.6288613000      -0.8481352000
C       -0.3749688000      -0.1098342000      -0.2862676000
5

H        0.2336481000      -1.0737459000      -0.3236310000
H       -0.8552426000       0.2048543000       0.5657363000
H        0.2970098000       0.5533906000      -0.6532233000
H       -1.2835828000      -0.6802118000      -0.8429225000
C       -0.3804122000      -0.1155009000      -0.2875783000
5

H        0.2502661000      -1.0716330000      -0.3515483000
H       -0.8506649000       0.2945830000       0.6071899000
H        0.3625480000       0.6307177000      -0.6272814000
H       -1.2827102000      -0.6977396000      -0.8402621000
C       -0.3881121000      -0.1283106000      -0.2913036000
5

H        0.2628991000      -1.0568874000      -0.3536701000
H       -0.8385085000       0.3719060000       0.6578491000
H        0.4089644000       0.7071824000      -0.6173880000
H       -1.2615064000      -0.6793591000      -0.8399597000
C       -0.3962158000      -0.1440828000      -0.2964233000
5

H        0.2736449000      -1.0325801000      -0.3299130000
H       -0.8117602000       0.4220227000       0.6949658000
H        0.4192138000       0.7606954000      -0.6175000000
H       -1.2287818000      -0.6291715000      -0.8448500000
C       -0.4033170000      -0.1591167000      -0.3013031000
5

H        0.2857547000      -1.0047247000      -0.2828166000
H       -0.7704229000       0.4369504000       0.7071548000
H        0.3890274000       0.7813120000      -0.6255214000
H       -1.2004354000      -0.5575758000      -0.8622514000
C       -0.4079947000      -0.1705286000      -0.3043346000
5

H        0.3013312000      -0.9800189000      -0.2171653000
H       -0.7189759000       0.4150593000       0.6917162000
H        0.3213326000       0.7660922000      -0.6404537000
H       -1.1935691000      -0.4773201000      -0.9011575000
C       -0.4088586000      -0.1763016000      -0.3042178000
5

H        0.3191894000      -0.9627213000      -0.1400122000
H       -0.6651457000       0.3612134000       0.6543449000
H        0.2254797000       0.7186819000      -0.6620203000
H       -1.2114250000      -0.3963777000      -0.9610901000
C       -0.4056732000      -0.1761229000      -0.3009019000
5

H        0.3349421000      -0.9530640000      -0.0607759000
H       -0.6200390000       0.2888870000       0.6130469000
H        0.1201008000       0.6541999000      -0.6927702000
H       -1.2392765000      -0.3185992000      -1.0261835000
C       -0.3999387000      -0.1720509000      -0.2962263000
5

H        0.3436418000      -0.9485625000       0.0096067000
H       -0.5969426000       0.2198553000       0.5994702000
H        0.0335961000       0.6040708000      -0.7417479000
H       -1.2603575000      -0.2497457000      -1.0762442000
C       -0.3939169000      -0.1682787000      -0.2928668000
5

H        0.3424859000      -0.9468216000       0.0608301000
H       -0.6046421000       0.1722618000       0.6378354000
H       -0.0103522000       0.5989141000      -0.8185188000
H       -1.2671131000      -0.1979364000      -1.0981068000
C       -0.3892579000      -0.1684207000      -0.2922940000
5

H        0.3314449000      -0.9472626000       0.0855948000
H       -0.6398136000       0.1475478000       0.7134740000
H       -0.0117469000       0.6338778000      -0.9122563000
H       -1.2598393000      -0.1708011000      -1.0872518000
C       -0.3862130000      -0.1715984000      -0.2939522000
5

H        0.3125041000      -0.9508051000       0.0810223000
H       -0.6903828000       0.1380422000       0.7880112000
H        0.0148536000       0.6793012000      -0.9952122000
H       -1.2427650000      -0.1731610000      -1.0457210000
C       -0.3843849000      -0.1741945000      -0.2965350000
5

H        0.2891790000      -0.9593361000       0.0488793000
H       -0.7437940000       0.1375565000       0.8328372000
H        0.0560559000       0.7122911000      -1.0462339000
H       -1.2238474000      -0.2059934000      -0.9820353000
C       -0.3833305000      -0.1735258000      -0.2988491000
5

H        0.2660913000      -0.9754511000      -0.0053492000
H       -0.7901506000       0.1424466000       0.8356252000
H        0.1015706000       0.7217139000      -1.0563993000
H       -1.2166109000      -0.2670210000      -0.9117127000
C       -0.3822696000      -0.1683245000      -0.2997660000
5

H        0.2474956000      -1.0007853000      -0.0743433000
H       -0.8220890000       0.1504568000       0.7950111000
H        0.1424652000       0.7031734000      -1.0246755000
H       -1.2347963000      -0.3522010000      -0.8512534000
C       -0.3802737000      -0.1582344000      -0.2984871000
5

H        0.2349722000      -1.0329983000      -0.1505794000
H       -0.8350192000       0.1606805000       0.7184017000
H        0.1715587000       0.6577852000      -0.9561255000
H       -1.2768060000      -0.4542258000      -0.8065200000
C       -0.3773921000      -0.1440831000      -0.2953486000
5

H        0.2264623000      -1.0647568000      -0.2264672000
H       -0.8297023000       0.1746838000       0.6248671000
H        0.1870981000       0.5957424000      -0.8644344000
H       -1.3231111000      -0.5592310000      -0.7729173000
C       -0.3748810000      -0.1286383000      -0.2918264000
5

H        0.2182376000      -1.0870558000      -0.2938001000
H       -0.8164743000       0.1982035000       0.5488169000
H        0.1996415000       0.5416094000      -0.7755459000
H       -1.3536318000      -0.6504246000      -0.7460803000
C       -0.3741322000      -0.1166117000      -0.2896873000
5

H        0.2080156000      -1.0939773000      -0.3443470000
H       -0.8114007000       0.2388915000       0.5279034000
H        0.2312876000       0.5276137000      -0.7202233000
H       -1.3583290000      -0.7143293000      -0.7256361000
C       -0.3763042000      -0.1129815000      -0.2902327000
5

H        0.1968403000      -1.0851097000      -0.3714786000
H       -0.8173614000       0.2946743000       0.5681890000
H        0.2886159000       0.5622909000      -0.7088589000
H       -1.3360840000      -0.7428135000      -0.7131625000
C       -0.3818891000      -0.1190078000      -0.2935234000
5

H        0.1894588000      -1.0653445000      -0.3714442000
H       -0.8201166000       0.3494548000       0.6386883000
H        0.3476729000       0.6199809000      -0.7265553000
H       -1.2923781000      -0.7331038000      -0.7107602000
C       -0.3900095000      -0.1310059000      -0.2983469000
5

H        0.1930892000      -1.0430319000      -0.3436250000
H       -0.8067918000       0.3863863000       0.7051652000
H        0.3815550000       0.6712699000      -0.7556492000
H       -1.2400789000      -0.6890802000      -0.7219132000
C       -0.3990130000      -0.1440635000      -0.3030710000
5

H        0.2134556000      -1.0260157000      -0.2901036000
H       -0.7738461000       0.3963207000       0.7469075000
H        0.3772102000       0.6992655000      -0.7853671000
H       -1.2010298000      -0.6232295000      -0.7537424000
C       -0.4067471000      -0.1542859000      -0.3060882000
5

H        0.2491498000      -1.0162303000      -0.2157051000
H       -0.7243815000       0.3771567000       0.7545075000
H        0.3327960000       0.6971896000      -0.8096778000
H       -1.1978342000      -0.5517751000      -0.8149057000
C       -0.4107800000      -0.1594025000      -0.3059824000
5

H        0.2903403000      -1.0086245000      -0.1289405000
H       -0.6653974000       0.3325127000       0.7273798000
H        0.2543125000       0.6655039000      -0.8254418000
H       -1.2311785000      -0.4817627000      -0.9022952000
C       -0.4101442000      -0.1595890000      -0.3025138000
5

H        0.3246728000      -0.9964330000      -0.0416910000
H       -0.6071066000       0.2725364000       0.6763859000
H        0.1560229000       0.6132743000      -0.8338113000
H       -1.2766222000      -0.4116436000      -0.9943311000
C       -0.4061946000      -0.1571576000      -0.2973121000
5

H        0.3438576000      -0.9763745000       0.0333905000
H       -0.5627467000       0.2153597000       0.6293764000
H        0.0616753000       0.5620640000      -0.8444104000
H       -1.3101100000      -0.3430195000      -1.0662233000
C       -0.4011378000      -0.1555825000      -0.2929274000
5

H        0.3457658000      -0.9499709000       0.0858072000
H       -0.5450609000       0.1823354000       0.6240293000
H       -0.0020501000       0.5415649000      -0.8743556000
H       -1.3211943000      -0.2824012000      -1.1026095000
C       -0.3968431000      -0.1584758000      -0.2914951000
5

H        0.3333283000      -0.9226642000       0.1091687000
H       -0.5586442000       0.1827462000       0.6713658000
H       -0.0233331000       0.5644822000      -0.9290747000
H       -1.3095053000      -0.2376714000      -1.0978689000
C       -0.3941944000      -0.1665649000      -0.2934204000
5

H        0.3129881000      -0.9024354000       0.1024440000
H       -0.5972917000       0.2082045000       0.7401785000
H       -0.0100214000       0.6130722000      -0.9893990000
H       -1.2799131000      -0.2156878000      -1.0535747000
C       -0.3931858000      -0.1764090000      -0.2974732000
5

H        0.2934369000      -0.8981874000       0.0702496000
H       -0.6496352000       0.2448201000       0.7930004000
H        0.0244737000       0.6616917000      -1.0312679000
H       -1.2426734000      -0.2208355000      -0.9790302000
C       -0.3935140000      -0.1835720000      -0.3021333000
5

H        0.2826750000      -0.9168327000       0.0205258000
H       -0.7043666000       0.2814092000       0.8091302000
H        0.0686979000       0.6933842000      -1.0416064000
H       -1.2182290000      -0.2545328000      -0.8943485000
C       -0.3941219000      -0.1849907000      -0.3057382000
5

H        0.2827462000      -0.9581886000      -0.0397815000
H       -0.7519526000       0.3102363000       0.7823203000
H        0.1127340000       0.6992860000      -1.0172583000
H       -1.2340005000      -0.3163136000      -0.8252080000
C       -0.3928463000      -0.1793256000      -0.3064555000
5

H        0.2877169000      -1.0122326000      -0.1061358000
H       -0.7850223000       0.3266965000       0.7159832000
H        0.1480970000       0.6763706000      -0.9616397000
H       -1.2956913000      -0.4025645000      -0.7815439000
C       -0.3886163000      -0.1670811000      -0.3038314000
5

H        0.2881797000      -1.0634305000      -0.1739010000
H       -0.7998102000       0.3302457000       0.6231262000
H        0.1702113000       0.6290594000      -0.8849725000
H       -1.3727914000      -0.5008703000      -0.7528467000
C       -0.3831362000      -0.1509301000      -0.2993719000
5

H        0.2768835000      -1.0980803000      -0.2366418000
H       -0.8000513000       0.3269793000       0.5298650000
H        0.1832901000       0.5733484000      -0.8066972000
H       -1.4308503000      -0.5934953000      -0.7289839000
C       -0.3787309000      -0.1353680000      -0.2950291000
5

H        0.2513112000      -1.1088040000      -0.2869035000
H       -0.7996273000       0.3308973000       0.4744530000
H        0.2032678000       0.5365301000      -0.7537348000
H       -1.4526072000      -0.6659388000      -0.7079465000
C       -0.3768108000      -0.1257005000      -0.2925501000
5

H        0.2141575000      -1.0959010000      -0.3178690000
H       -0.8114244000       0.3532543000       0.4840357000
H        0.2445206000       0.5387497000      -0.7448332000
H       -1.4343390000      -0.7091031000      -0.6916920000
C       -0.3780401000      -0.1253033000      -0.2930483000
5

H        0.1737508000      -1.0678590000      -0.3247151000
H       -0.8293251000       0.3862236000       0.5463959000
H        0.2976705000       0.5710699000      -0.7743726000
H       -1.3799061000      -0.7182336000      -0.6830122000
C       -0.3825200000      -0.1324548000      -0.2961400000
5

H        0.1440256000      -1.0408483000      -0.3051456000
H       -0.8364546000       0.4109964000       0.6261641000
H        0.3383127000       0.6080733000      -0.8225730000
H       -1.3003121000      -0.6931798000      -0.6853268000
C       -0.3898644000      -0.1420954000      -0.3004216000
5

H        0.1396962000      -1.0320093000      -0.2590014000
H       -0.8225872000       0.4146556000       0.6942887000
H        0.3489209000       0.6299871000      -0.8721174000
H       -1.2182960000      -0.6420067000      -0.7052470000
C       -0.3987868000      -0.1493628000      -0.3043663000
5

H        0.1648089000      -1.0447979000      -0.1886840000
H       -0.7867636000       0.3931669000       0.7341064000
H        0.3236942000       0.6272645000      -0.9118016000
H       -1.1694671000      -0.5836436000      -0.7555614000
C       -0.4062293000      -0.1512365000      -0.3062397000
5

H        0.2073526000      -1.0644835000      -0.1019570000
H       -0.7339071000       0.3489450000       0.7383222000
H        0.2659179000       0.5986243000      -0.9351576000
H       -1.1776488000      -0.5346284000      -0.8453440000
C       -0.4090447000      -0.1476599000      -0.3045580000
5

H        0.2493187000      -1.0726984000      -0.0121245000
H       -0.6726870000       0.2899660000       0.7091479000
H        0.1870381000       0.5508363000      -0.9409967000
H       -1.2245842000      -0.4924091000      -0.9579679000
C       -0.4074868000      -0.1416288000      -0.2998857000
5

H        0.2778610000      -1.0596081000       0.0663940000
H       -0.6152155000       0.2304322000       0.6628053000
H        0.1069939000       0.5002843000      -0.9370582000
H       -1.2748946000      -0.4489928000      -1.0604353000
C       -0.4041056000      -0.1372092000      -0.2944951000
5

H        0.2879146000      -1.0249619000       0.1219837000
H       -0.5758733000       0.1898266000       0.6318820000
H        0.0505319000       0.4710177000      -0.9412616000
H       -1.3078262000      -0.4039451000      -1.1285337000
C       -0.4010891000      -0.1381147000      -0.2906756000
5

H        0.2805945000      -0.9754637000       0.1475164000
H       -0.5653960000       0.1842649000       0.6458704000
H        0.0335824000       0.4797498000      -0.9673964000
H       -1.3168298000      -0.3615667000      -1.1512285000
C       -0.3995171000      -0.1461780000      -0.2900748000
5

H        0.2620623000      -0.9232221000       0.1415770000
H       -0.5841395000       0.2142785000       0.6970468000
H        0.0522279000       0.5195631000      -1.0059041000
H       -1.3017306000      -0.3271370000      -1.1258351000
C       -0.3995629000      -0.1594023000      -0.2929533000
5

H        0.2438680000      -0.8851559000       0.1101505000
H       -0.6237739000       0.2666594000       0.7497441000
H        0.0914624000       0.5691953000      -1.0339245000
H       -1.2663620000      -0.3055862000      -1.0563053000
C       -0.4013138000      -0.1730576000      -0.2984062000
5

H        0.2406927000      -0.8791349000       0.0653182000
H       -0.6733287000       0.3255258000       0.7749411000
H        0.1372093000       0.6104884000      -1.0356432000
H       -1.2233931000      -0.3013915000      -0.9572279000
C       -0.4046781000      -0.1824084000      -0.3051138000
5

H        0.2594182000      -0.9121882000       0.0169142000
H       -0.7225725000       0.3779347000       0.7600388000
H        0.1787341000       0.6327707000      -1.0064118000
H       -1.2036656000      -0.3193773000      -0.8592553000
C       -0.4076013000      -0.1844760000      -0.3106596000
5

H        0.2901604000      -0.9719988000      -0.0332261000
H       -0.7630371000       0.4149055000       0.7045304000
H        0.2078002000       0.6311528000      -0.9493598000
H       -1.2440471000      -0.3640965000      -0.7949257000
C       -0.4061762000      -0.1787476000      -0.3121599000
5

H        0.3151705000      -1.0362536000      -0.0855246000
H       -0.7887672000       0.4319753000       0.6172864000
H        0.2200376000       0.6066713000      -0.8738226000
H       -1.3366184000      -0.4316948000      -0.7649803000
C       -0.3997106000      -0.1671330000      -0.3094780000
5

H        0.3212423000      -1.0860315000      -0.1372625000
H       -0.7987537000       0.4309989000       0.5173673000
H        0.2189150000       0.5692040000      -0.7962757000
H       -1.4326451000      -0.5065705000      -0.7496153000
C       -0.3915645000      -0.1535169000      -0.3047227000
5

H        0.3027798000      -1.1104290000      -0.1831271000
H       -0.8008210000       0.4230610000       0.4353497000
H        0.2188273000       0.5391276000      -0.7397951000
H       -1.4956201000      -0.5728030000      -0.7378355000
C       -0.3848860000      -0.1427942000      -0.2998937000
5

H        0.2607047000      -1.1065038000      -0.2171755000
H       -0.8097286000       0.4255005000       0.4046741000
H        0.2370588000       0.5371975000      -0.7246074000
H       -1.5117828000      -0.6202687000      -0.7279395000
C       -0.3811203000      -0.1392617000      -0.2967431000
5

H        0.2023314000      -1.0799337000      -0.2341016000
H       -0.8313318000       0.4442471000       0.4359878000
H        0.2733541000       0.5635935000      -0.7527408000
H       -1.4796295000      -0.6433951000      -0.7211960000
C       -0.3804948000      -0.1434236000      -0.2963340000
5

H        0.1427822000      -1.0473880000      -0.2297204000
H       -0.8535382000       0.4649201000       0.5074408000
H        0.3082985000       0.5978944000      -0.8083747000
H       -1.4044488000      -0.6395924000      -0.7195330000
C       -0.3832202000      -0.1511745000      -0.2983495000
5

H        0.1028631000      -1.0339807000      -0.2008677000
H       -0.8608836000       0.4698819000       0.5879988000
H        0.3229302000       0.6191283000      -0.8721660000
H       -1.3005327000      -0.6102742000      -0.7266386000
C       -0.3895500000      -0.1570438000      -0.3017636000
5

H        0.0961222000      -1.0541371000      -0.1465657000
H       -0.8461674000       0.4505396000       0.6547658000
H        0.3085350000       0.6154649000      -0.9291664000
H       -1.1987612000      -0.5655949000      -0.7524565000
C       -0.3979016000      -0.1572521000      -0.3051555000
5

H        0.1165927000      -1.0937095000      -0.0722729000
H       -0.8101711000       0.4066738000       0.6940900000
H        0.2658063000       0.5840066000      -0.9695283000
H       -1.1434544000      -0.5257684000      -0.8153403000
C       -0.4040440000      -0.1510281000      -0.3062061000
5

H        0.1469969000      -1.1255273000       0.0090773000
H       -0.7587261000       0.3440599000       0.7003129000
H        0.2035275000       0.5301748000      -0.9887464000
H       -1.1518234000      -0.5023285000      -0.9207633000
C       -0.4053285000      -0.1406259000      -0.3032725000
5

H        0.1730419000      -1.1314898000       0.0825589000
H       -0.7013551000       0.2740416000       0.6780706000
H        0.1384404000       0.4682239000      -0.9904305000
H       -1.1940649000      -0.4864962000      -1.0397844000
C       -0.4036640000      -0.1304530000      -0.2976178000
5

H        0.1875382000      -1.1065376000       0.1360252000
H       -0.6511460000       0.2134428000       0.6467156000
H        0.0927638000       0.4194271000      -0.9889367000
H       -1.2371851000      -0.4687690000      -1.1364505000
C       -0.4019845000      -0.1249320000      -0.2916609000
5

H        0.1890163000      -1.0551091000       0.1617582000
H       -0.6221585000       0.1809308000       0.6369948000
H        0.0844732000       0.4021287000      -1.0009690000
H       -1.2659344000      -0.4472524000      -1.1906026000
C       -0.4017761000      -0.1269576000      -0.2876259000
5

H        0.1806283000      -0.9888946000       0.1572868000
H       -0.6218488000       0.1871794000       0.6656968000
H        0.1144741000       0.4178978000      -1.0260178000
H       -1.2751419000      -0.4235607000      -1.1946810000
C       -0.4031878000      -0.1364403000      -0.2873930000
5

H        0.1709741000      -0.9269652000       0.1272336000
H       -0.6463808000       0.2278037000       0.7146537000
H        0.1679605000       0.4529690000      -1.0456016000
H       -1.2633210000      -0.4001163000      -1.1480257000
C       -0.4061452000      -0.1500506000      -0.2914326000
5

H        0.1744152000      -0.8938727000       0.0842009000
H       -0.6853675000       0.2884440000       0.7514232000
H        0.2270433000       0.4915592000      -1.0422666000
H       -1.2331381000      -0.3798963000      -1.0571768000
C       -0.4110001000      -0.1629448000      -0.2989947000
5

H        0.2022214000      -0.9062815000       0.0414352000
H       -0.7278960000       0.3533398000       0.7543878000
H        0.2776088000       0.5227136000      -1.0091167000
H       -1.1993036000      -0.3679274000      -0.9423537000
C       -0.4171949000      -0.1710576000      -0.3082572000
5

H        0.2476264000      -0.9562707000       0.0021158000
H       -0.7649032000       0.4096526000       0.7164248000
H        0.3096671000       0.5402805000      -0.9482595000
H       -1.1986596000      -0.3733946000      -0.8419395000
C       -0.4209898000      -0.1726879000      -0.3154882000
5

H        0.2902471000      -1.0192238000      -0.0369613000
H       -0.7897486000       0.4488892000       0.6415858000
H        0.3175826000       0.5423166000      -0.8681094000
H       -1.2649830000      -0.4041420000      -0.7867920000
C       -0.4179201000      -0.1683679000      -0.3174603000
5

H        0.3129971000      -1.0732118000      -0.0764371000
H       -0.7993173000       0.4680457000       0.5437557000
H        0.3030548000       0.5326618000      -0.7827763000
H       -1.3738053000      -0.4527043000      -0.7672898000
C       -0.4090107000      -0.1606363000      -0.3149094000
5

H        0.3078068000      -1.1052759000      -0.1133808000
H       -0.7969196000       0.4716858000       0.4469164000
H        0.2785967000       0.5233462000      -0.7118244000
H       -1.4722484000      -0.5022270000      -0.7613374000
C       -0.3987976000      -0.1533905000      -0.3103083000
5

H        0.2738589000      -1.1101676000      -0.1434619000
H       -0.7939982000       0.4730442000       0.3823501000
H        0.2640400000       0.5316535000      -0.6755989000
H       -1.5293270000      -0.5405551000      -0.7591190000
C       -0.3905191000      -0.1506552000      -0.3057642000
5

H        0.2166590000      -1.0902858000      -0.1622272000
H       -0.8025926000       0.4851858000       0.3737342000
H        0.2698460000       0.5652421000      -0.6840199000
H       -1.5350722000      -0.5615865000      -0.7585331000
C       -0.3853423000      -0.1544822000      -0.3029829000
5

H        0.1494979000      -1.0588607000      -0.1653091000
H       -0.8214906000       0.5046347000       0.4183385000
H        0.2859098000       0.6110459000      -0.7302049000
H       -1.4894806000      -0.5626767000      -0.7596030000
C       -0.3836371000      -0.1625930000      -0.3026780000
5

H        0.0932949000      -1.0411883000      -0.1481338000
H       -0.8377857000       0.5145598000       0.4924567000
H        0.2942174000       0.6468930000      -0.7976140000
H       -1.3995159000      -0.5436130000      -0.7634122000
C       -0.3861465000      -0.1696054000      -0.3045410000
5

H        0.0658895000      -1.0588714000      -0.1075951000
H       -0.8401607000       0.5016722000       0.5708560000
H        0.2831633000       0.6564536000      -0.8694483000
H       -1.2843358000      -0.5083730000      -0.7748190000
C       -0.3927356000      -0.1708833000      -0.3077160000
5

H        0.0669614000      -1.1042047000      -0.0475461000
H       -0.8244935000       0.4620277000       0.6350717000
H        0.2502064000       0.6331477000      -0.9324387000
H       -1.1838651000      -0.4694490000      -0.8086244000
C       -0.4001572000      -0.1651409000      -0.3101998000
5

H        0.0823890000      -1.1482987000       0.0197533000
H       -0.7925857000       0.3988930000       0.6735231000
H        0.2005969000       0.5795297000      -0.9777952000
H       -1.1430229000      -0.4443442000      -0.8854163000
C       -0.4037424000      -0.1538235000      -0.3089995000
5

H        0.0989904000      -1.1681866000       0.0799700000
H       -0.7501599000       0.3211015000       0.6822558000
H        0.1467197000       0.5070292000      -1.0029312000
H       -1.1614821000      -0.4363962000      -0.9983228000
C       -0.4029708000      -0.1402817000      -0.3033737000
5

H        0.1096939000      -1.1549743000       0.1217599000
H       -0.7062223000       0.2427274000       0.6681687000
H        0.1063026000       0.4345298000      -1.0142739000
H       -1.2025030000      -0.4354234000      -1.1092119000
C       -0.4010665000      -0.1288856000      -0.2956116000
5

H        0.1123565000      -1.1107330000       0.1380650000
H       -0.6726783000       0.1815440000       0.6514083000
H        0.0965119000       0.3818044000      -1.0251920000
H       -1.2398919000      -0.4342853000      -1.1867803000
C       -0.4004909000      -0.1232142000      -0.2883182000
5

H        0.1088143000      -1.0461474000       0.1267164000
H       -0.6605845000       0.1533804000       0.6567513000
H        0.1242300000       0.3586917000      -1.0429293000
H       -1.2631563000      -0.4308082000      -1.2171211000
C       -0.4019288000      -0.1247082000      -0.2839524000
5

H        0.1056352000      -0.9807071000       0.0918905000
H       -0.6729774000       0.1640035000       0.6902743000
H        0.1813255000       0.3614248000      -1.0587807000
H       -1.2680768000      -0.4245722000      -1.1962341000
C       -0.4053483000      -0.1319340000      -0.2844422000
5

H        0.1146300000      -0.9411242000       0.0448886000
H       -0.7027344000       0.2066754000       0.7314496000
H        0.2512125000       0.3801888000      -1.0573310000
H       -1.2530745000      -0.4156099000      -1.1260390000
C       -0.4110792000      -0.1412551000      -0.2901464000
5

H        0.1458674000      -0.9474084000      -0.0016333000
H       -0.7383092000       0.2675072000       0.7538485000
H        0.3173977000       0.4061306000      -1.0289551000
H       -1.2223248000      -0.4051036000      -1.0170553000
C       -0.4192011000      -0.1489819000      -0.2998330000
5

H        0.1939368000      -0.9932256000      -0.0430990000
H       -0.7692945000       0.3319639000       0.7417175000
H        0.3667814000       0.4328951000      -0.9726802000
H       -1.1961595000      -0.3984832000      -0.8962584000
C       -0.4273258000      -0.1534358000      -0.3103791000
5

H        0.2400304000      -1.0528429000      -0.0810650000
H       -0.7883624000       0.3884877000       0.6920079000
H        0.3902431000       0.4562125000      -0.8942930000
H       -1.2163685000      -0.4076905000      -0.8054563000
C       -0.4302140000      -0.1544463000      -0.3174002000
5

H        0.2675193000      -1.1032974000      -0.1158877000
H       -0.7916663000       0.4300600000       0.6124928000
H        0.3845666000       0.4746081000      -0.8048714000
H       -1.3031200000      -0.4383788000      -0.7645575000
C       -0.4248284000      -0.1527535000      -0.3189171000
5

H        0.2683671000      -1.1317038000      -0.1453677000
H       -0.7801468000       0.4554233000       0.5207659000
H        0.3558101000       0.4914629000      -0.7201053000
H       -1.4161051000      -0.4771059000      -0.7552511000
C       -0.4143089000      -0.1507465000      -0.3168129000
5

H        0.2414870000      -1.1330506000      -0.1664045000
H       -0.7614404000       0.4702691000       0.4426858000
H        0.3195601000       0.5157685000      -0.6582008000
H       -1.5069040000      -0.5074130000      -0.7577990000
C       -0.4032986000      -0.1514616000      -0.3136485000
5

H        0.1916128000      -1.1094452000      -0.1760415000
H       -0.7474848000       0.4847404000       0.4048015000
H        0.2921973000       0.5566035000      -0.6337700000
H       -1.5522631000      -0.5207308000      -0.7640277000
C       -0.3945211000      -0.1570560000      -0.3113613000
5

H        0.1307650000      -1.0734351000      -0.1714883000
H       -0.7450502000       0.5024718000       0.4184233000
H        0.2772854000       0.6116034000      -0.6505598000
H       -1.5455668000      -0.5141554000      -0.7710379000
C       -0.3892726000      -0.1668267000      -0.3110643000
5

H        0.0787599000      -1.0506470000      -0.1495068000
H       -0.7499859000       0.5137706000       0.4723668000
H        0.2651330000       0.6645372000      -0.7007750000
H       -1.4881766000      -0.4878795000      -0.7775170000
C       -0.3886385000      -0.1764278000      -0.3128555000
5

H        0.0536815000      -1.0654007000      -0.1076222000
H       -0.7534344000       0.5054083000       0.5446533000
H        0.2448055000       0.6965912000      -0.7707572000
H       -1.3896720000      -0.4449478000      -0.7841656000
C       -0.3931579000      -0.1808700000      -0.3161846000
5

H        0.0560929000      -1.1122471000      -0.0499547000
H       -0.7492298000       0.4708619000       0.6150111000
H        0.2115536000       0.6960102000      -0.8463344000
H       -1.2763497000      -0.3933239000      -0.7982427000
C       -0.4007882000      -0.1784072000      -0.3195836000
5

H        0.0719707000      -1.1612484000       0.0108579000
H       -0.7356708000       0.4112846000       0.6686482000
H        0.1676167000       0.6604920000      -0.9155540000
H       -1.1972508000      -0.3475098000      -0.8394693000
C       -0.4065641000      -0.1702392000      -0.3200961000
5

H        0.0878831000      -1.1874548000       0.0606460000
H       -0.7145415000       0.3334757000       0.6969071000
H        0.1214280000       0.5967910000      -0.9704297000
H       -1.1890371000      -0.3198245000      -0.9240833000
C       -0.4068365000      -0.1585654000      -0.3151119000
5

H        0.0968341000      -1.1806788000       0.0890866000
H       -0.6901439000       0.2489489000       0.6992278000
H        0.0857988000       0.5192694000      -1.0089485000
H       -1.2306122000      -0.3096901000      -1.0307663000
C       -0.4035039000      -0.1464637000      -0.3056765000
5

H        0.0969482000      -1.1421537000       0.0904722000
H       -0.6692024000       0.1730281000       0.6858777000
H        0.0735748000       0.4454241000      -1.0355230000
H       -1.2819719000      -0.3113170000      -1.1210309000
C       -0.4002824000      -0.1370726000      -0.2950343000
5

H        0.0902516000      -1.0822883000       0.0638346000
H       -0.6600471000       0.1216603000       0.6768194000
H        0.0920408000       0.3887854000      -1.0560929000
H       -1.3213331000      -0.3207192000      -1.1719340000
C       -0.3990839000      -0.1323281000      -0.2862090000
5

H        0.0834058000      -1.0213784000       0.0140540000
H       -0.6685550000       0.1054114000       0.6892714000
H        0.1393659000       0.3543697000      -1.0704174000
H       -1.3400345000      -0.3351798000      -1.1753585000
C       -0.4005482000      -0.1320623000      -0.2817587000
5

H        0.0877147000      -0.9876569000      -0.0482176000
H       -0.6928536000       0.1245909000       0.7208287000
H        0.2058083000       0.3406920000      -1.0713185000
H       -1.3342333000      -0.3520641000      -1.1305894000
C       -0.4052863000      -0.1340265000      -0.2830394000
5

H        0.1115155000      -1.0010782000      -0.1119270000
H       -0.7236451000       0.1701874000       0.7516911000
H        0.2781784000       0.3441605000      -1.0510845000
H       -1.3037582000      -0.3684915000      -1.0426527000
C       -0.4136861000      -0.1357283000      -0.2895414000
5

H        0.1484672000      -1.0527987000      -0.1713070000
H       -0.7499967000       0.2291646000       0.7619735000
H        0.3434045000       0.3609026000      -1.0063104000
H       -1.2577942000      -0.3827363000      -0.9265866000
C       -0.4242642000      -0.1366355000      -0.2991020000
5

H        0.1821477000      -1.1149997000      -0.2232034000
H       -0.7637810000       0.2892498000       0.7417679000
H        0.3901143000       0.3866806000      -0.9388563000
H       -1.2264356000      -0.3988558000      -0.8141422000
C       -0.4328415000      -0.1373571000      -0.3083310000
5

H        0.1996731000      -1.1643694000      -0.2640158000
H       -0.7608460000       0.3413485000       0.6920491000
H        0.4102973000       0.4174006000      -0.8556204000
H       -1.2544709000      -0.4277099000      -0.7430609000
C       -0.4342505000      -0.1378311000      -0.3138636000
5

H        0.1957176000      -1.1885978000      -0.2902408000
H       -0.7411853000       0.3806549000       0.6234736000
H        0.4024318000       0.4509894000      -0.7681501000
H       -1.3453118000      -0.4689015000      -0.7199795000
C       -0.4276300000      -0.1385470000      -0.3153620000
5

H        0.1704022000      -1.1832953000      -0.2993749000
H       -0.7097488000       0.4073028000       0.5549859000
H        0.3736003000       0.4891117000      -0.6913025000
H       -1.4509974000      -0.5046467000      -0.7239118000
C       -0.4171969000      -0.1415179000      -0.3151423000
5

H        0.1280534000      -1.1507616000      -0.2904555000
H       -0.6759520000       0.4257460000       0.5096482000
H        0.3364505000       0.5361659000      -0.6398741000
H       -1.5305819000      -0.5200399000      -0.7382160000
C       -0.4070252000      -0.1485462000      -0.3153773000
5

H        0.0788002000      -1.1035791000      -0.2641805000
H       -0.6488181000       0.4398699000       0.5039730000
H        0.3005833000       0.5936679000      -0.6233779000
H       -1.5662462000      -0.5094893000      -0.7549687000
C       -0.3995106000      -0.1594985000      -0.3172617000
5

H        0.0401344000      -1.0687697000      -0.2219839000
H       -0.6314035000       0.4463522000       0.5370385000
H        0.2662893000       0.6541163000      -0.6425881000
H       -1.5527391000      -0.4731417000      -0.7698269000
C       -0.3963307000      -0.1711841000      -0.3208976000
5

H        0.0294757000      -1.0747980000      -0.1649453000
H       -0.6213363000       0.4367113000       0.5931541000
H        0.2282267000       0.7029565000      -0.6906581000
H       -1.4917493000      -0.4146716000      -0.7800779000
C       -0.3985570000      -0.1789689000      -0.3256795000
5

H        0.0477632000      -1.1191771000      -0.0976684000
H       -0.6151066000       0.4052725000       0.6532797000
H        0.1827535000       0.7267644000      -0.7567600000
H       -1.3950510000      -0.3414057000      -0.7862442000
C       -0.4052688000      -0.1808424000      -0.3304868000
5

H        0.0796518000      -1.1703033000      -0.0322505000
H       -0.6104790000       0.3524670000       0.7020660000
H        0.1313650000       0.7189053000      -0.8293181000
H       -1.2947955000      -0.2652796000      -0.7974597000
C       -0.4127906000      -0.1779356000      -0.3332192000
5

H        0.1092059000      -1.2005836000       0.0172540000
H       -0.6067861000       0.2837610000       0.7297263000
H        0.0809260000       0.6809828000      -0.8983089000
H       -1.2427821000      -0.1998115000      -0.8340433000
C       -0.4160662000      -0.1720247000      -0.3310098000
5

H        0.1272516000      -1.1984287000       0.0406624000
H       -0.6046109000       0.2083945000       0.7332224000
H        0.0421611000       0.6219680000      -0.9571259000
H       -1.2630848000      -0.1528978000      -0.9044662000
C       -0.4131551000      -0.1649491000      -0.3225918000
5

H        0.1307859000      -1.1643013000       0.0327667000
H       -0.6057688000       0.1386162000       0.7183818000
H        0.0257729000       0.5547857000      -1.0033789000
H       -1.3239286000      -0.1278630000      -0.9840989000
C       -0.4072195000      -0.1585051000      -0.3102865000
5

H        0.1215901000      -1.1078925000      -0.0067756000
H       -0.6135924000       0.0878291000       0.7005191000
H        0.0376063000       0.4911730000      -1.0372205000
H       -1.3862851000      -0.1260046000      -1.0431537000
C       -0.4018975000      -0.1538807000      -0.2978398000
5

H        0.1068490000      -1.0492926000      -0.0727300000
H       -0.6316118000       0.0664771000       0.6979011000
H        0.0766128000       0.4385702000      -1.0581413000
H       -1.4292868000      -0.1457041000      -1.0666588000
C       -0.3991606000      -0.1510267000      -0.2885255000
5

H        0.0990573000      -1.0178503000      -0.1548813000
H       -0.6595550000       0.0772459000       0.7171661000
H        0.1361968000       0.4006015000      -1.0635837000
H       -1.4434351000      -0.1830612000      -1.0505265000
C       -0.4003253000      -0.1483354000      -0.2843176000
5

H        0.1070675000      -1.0346957000      -0.2429018000
H       -0.6907921000       0.1138655000       0.7467837000
H        0.2068445000       0.3788753000      -1.0503686000
H       -1.4247591000      -0.2324739000      -0.9965089000
C       -0.4062261000      -0.1441113000      -0.2852349000
5

H        0.1240342000      -1.0898744000      -0.3288322000
H       -0.7155738000       0.1649550000       0.7682137000
H        0.2780931000       0.3735305000      -1.0165346000
H       -1.3757608000      -0.2869604000      -0.9121086000
C       -0.4160185000      -0.1388328000      -0.2899234000
5

H        0.1349251000      -1.1539869000      -0.4038652000
H       -0.7260132000       0.2189086000       0.7685227000
H        0.3394766000       0.3827279000      -0.9623912000
H       -1.3125980000      -0.3402797000      -0.8145432000
C       -0.4268660000      -0.1343638000      -0.2965645000
5

H        0.1307904000      -1.2037105000      -0.4592521000
H       -0.7182540000       0.2665698000       0.7441512000
H        0.3816467000       0.4029439000      -0.8915629000
H       -1.2728523000      -0.3921909000      -0.7331067000
C       -0.4343999000      -0.1316184000      -0.3028293000
5

H        0.1106826000      -1.2276797000      -0.4888996000
H       -0.6925338000       0.3021717000       0.7002803000
H        0.3987987000       0.4306753000      -0.8118247000
H       -1.2947556000      -0.4477529000      -0.6933979000
C       -0.4348222000      -0.1303477000      -0.3068621000
5

H        0.0780297000      -1.2222700000      -0.4897461000
H       -0.6529921000       0.3237771000       0.6499361000
H        0.3915200000       0.4645263000      -0.7346837000
H       -1.3691473000      -0.5007213000      -0.6930999000
C       -0.4288916000      -0.1311005000      -0.3092418000
5

H        0.0383399000      -1.1891699000      -0.4617485000
H       -0.6072970000       0.3331814000       0.6117221000
H        0.3668753000       0.5059286000      -0.6732437000
H       -1.4537782000      -0.5334021000      -0.7137349000
C       -0.4205684000      -0.1354922000      -0.3119859000
5

H       -0.0002248000      -1.1382023000      -0.4085492000
H       -0.5641871000       0.3336367000       0.6024333000
H        0.3338069000       0.5568248000      -0.6384265000
H       -1.5173348000      -0.5336717000      -0.7410401000
C       -0.4131850000      -0.1441524000      -0.3164798000
5

H       -0.0247713000      -1.0932484000      -0.3374014000
H       -0.5296723000       0.3254782000       0.6260601000
H        0.2968046000       0.6147236000      -0.6351114000
H       -1.5452221000      -0.4988140000      -0.7666984000
C       -0.4089228000      -0.1551227000      -0.3227384000
5

H       -0.0207544000      -1.0854043000      -0.2558437000
H       -0.5060323000       0.3054976000       0.6710927000
H        0.2545218000       0.6702631000      -0.6609883000
H       -1.5318249000      -0.4323973000      -0.7853347000
C       -0.4091702000      -0.1644360000      -0.3298073000
5

H        0.0145617000      -1.1206278000      -0.1701664000
H       -0.4935817000       0.2715439000       0.7196335000
H        0.2043846000       0.7111883000      -0.7085418000
H       -1.4784844000      -0.3424206000      -0.7939076000
C       -0.4138019000      -0.1697103000      -0.3365416000
5

H        0.0668320000      -1.1703951000      -0.0907209000
H       -0.4919256000       0.2254032000       0.7564328000
H        0.1471279000       0.7283245000      -0.7680033000
H       -1.3985516000      -0.2409872000      -0.7939997000
C       -0.4205864000      -0.1717044000      -0.3414787000
5

H        0.1178552000      -1.2045758000      -0.0308425000
H       -0.5001561000       0.1721417000       0.7721434000
H        0.0883756000       0.7187395000      -0.8297761000
H       -1.3245659000      -0.1424462000      -0.7957591000
C       -0.4258111000      -0.1719229000      -0.3426672000
5

H        0.1551906000      -1.2088530000      -0.0009475000
H       -0.5168676000       0.1189079000       0.7641513000
H        0.0379953000       0.6862164000      -0.8863005000
H       -1.2972056000      -0.0577000000      -0.8145139000
C       -0.4259616000      -0.1715703000      -0.3383603000
5

H        0.1728526000      -1.1814304000      -0.0066005000
H       -0.5404259000       0.0742970000       0.7378588000
H        0.0072587000       0.6394726000      -0.9331602000
H       -1.3260425000       0.0063723000      -0.8518650000
C       -0.4208150000      -0.1716734000      -0.3287805000
5

H        0.1702285000      -1.1290794000      -0.0485078000
H       -0.5697742000       0.0474693000       0.7075094000
H        0.0042314000       0.5883494000      -0.9686170000
H       -1.3834489000       0.0417995000      -0.8909442000
C       -0.4134060000      -0.1725904000      -0.3166275000
5

H        0.1528023000      -1.0681723000      -0.1219114000
H       -0.6047989000       0.0458365000       0.6915916000
H        0.0304543000       0.5404902000      -0.9918308000
H       -1.4392106000       0.0429748000      -0.9152931000
C       -0.4068716000      -0.1737396000      -0.3053066000
5

H        0.1337649000      -1.0269054000      -0.2167700000
H       -0.6440739000       0.0711656000       0.6999020000
H        0.0812115000       0.5006787000      -1.0015414000
H       -1.4748693000       0.0100297000      -0.9174116000
C       -0.4035937000      -0.1733142000      -0.2972197000
5

H        0.1269236000      -1.0329684000      -0.3222557000
H       -0.6816755000       0.1170881000       0.7246650000
H        0.1479162000       0.4717208000      -0.9961265000
H       -1.4807369000      -0.0521420000      -0.8962589000
C       -0.4053219000      -0.1691003000      -0.2928466000
5

H        0.1295534000      -1.0842269000      -0.4292411000
H       -0.7087210000       0.1718393000       0.7488628000
H        0.2203166000       0.4548223000      -0.9742169000
H       -1.4539920000      -0.1349945000      -0.8550664000
C       -0.4119492000      -0.1611081000      -0.2913683000
5

H        0.1257673000      -1.1507223000      -0.5256790000
H       -0.7181249000       0.2236424000       0.7590805000
H        0.2877638000       0.4491286000      -0.9353793000
H       -1.4014304000      -0.2274816000      -0.8020522000
C       -0.4212713000      -0.1517204000      -0.2920161000
5

H        0.1056599000      -1.2053505000      -0.5985737000
H       -0.7070564000       0.2637358000       0.7500106000
H        0.3403808000       0.4519803000      -0.8813512000
H       -1.3441355000      -0.3191521000      -0.7521549000
C       -0.4300940000      -0.1431325000      -0.2940351000
5

H        0.0697411000      -1.2349098000      -0.6388777000
H       -0.6769225000       0.2869524000       0.7238997000
H        0.3710478000       0.4604637000      -0.8173015000
H       -1.3129556000      -0.4043605000      -0.7236807000
C       -0.4351532000      -0.1362486000      -0.2964023000
5

H        0.0242206000      -1.2357006000      -0.6420900000
H       -0.6326983000       0.2917344000       0.6898620000
H        0.3777813000       0.4732684000      -0.7519890000
H       -1.3239287000      -0.4793563000      -0.7253507000
C       -0.4350389000      -0.1314535000      -0.2987931000
5

H       -0.0228183000      -1.2091864000      -0.6074859000
H       -0.5820251000       0.2800370000       0.6629164000
H        0.3648869000       0.4918539000      -0.6965035000
H       -1.3636668000      -0.5339160000      -0.7496233000
C       -0.4312745000      -0.1297693000      -0.3022316000
5

H       -0.0625588000      -1.1622896000      -0.5385637000
H       -0.5332603000       0.2558271000       0.6586953000
H        0.3409341000       0.5198060000      -0.6615824000
H       -1.4088120000      -0.5551662000      -0.7830140000
C       -0.4265799000      -0.1323304000      -0.3079677000
5

H       -0.0844513000      -1.1127339000      -0.4442828000
H       -0.4928487000       0.2219545000       0.6828544000
H        0.3133030000       0.5592678000      -0.6538088000
H       -1.4428763000      -0.5361778000      -0.8149810000
C       -0.4233045000      -0.1386494000      -0.3160563000
5

H       -0.0765813000      -1.0898708000      -0.3370265000
H       -0.4645609000       0.1795126000       0.7255904000
H        0.2835118000       0.6063423000      -0.6728036000
H       -1.4565928000      -0.4778505000      -0.8386363000
C       -0.4230387000      -0.1459502000      -0.3252447000
5

H       -0.0340787000      -1.1104499000      -0.2270099000
H       -0.4505990000       0.1310132000       0.7692266000
H        0.2485623000       0.6510892000      -0.7118609000
H       -1.4458362000      -0.3875772000      -0.8498191000
C       -0.4261008000      -0.1515815000      -0.3341031000
5

H        0.0316954000      -1.1552374000      -0.1246893000
H       -0.4520914000       0.0818454000       0.7985953000
H        0.2060266000       0.6827500000      -0.7611344000
H       -1.4138284000      -0.2778196000      -0.8480256000
C       -0.4309676000      -0.1556611000      -0.3413484000
5

H        0.1012771000      -1.1931475000      -0.0439809000
H       -0.4687577000       0.0386043000       0.8050585000
H        0.1574257000       0.6944592000      -0.8107582000
H       -1.3747948000      -0.1637963000      -0.8382560000
C       -0.4349606000      -0.1594990000      -0.3454955000
5

H        0.1592865000      -1.2064903000       0.0033187000
H       -0.4987536000       0.0074959000       0.7868937000
H        0.1088199000       0.6849987000      -0.8529189000
H       -1.3505207000      -0.0591095000      -0.8296410000
C       -0.4356224000      -0.1638575000      -0.3452978000
5

H        0.1968789000      -1.1905478000       0.0108429000
H       -0.5389952000      -0.0061415000       0.7499200000
H        0.0693703000       0.6585496000      -0.8830566000
H       -1.3546315000       0.0267390000      -0.8279249000
C       -0.4320939000      -0.1691341000      -0.3406100000
5

H        0.2101465000      -1.1479572000      -0.0225801000
H       -0.5860916000       0.0019955000       0.7079702000
H        0.0483732000       0.6230884000      -0.9001772000
H       -1.3815458000       0.0856823000      -0.8303820000
C       -0.4255813000      -0.1754613000      -0.3328081000
5

H        0.2000361000      -1.0880086000      -0.0928452000
H       -0.6372642000       0.0344708000       0.6787440000
H        0.0519215000       0.5878260000      -0.9060460000
H       -1.4152463000       0.1103533000      -0.8309267000
C       -0.4182542000      -0.1824289000      -0.3240865000
5

H        0.1755951000      -1.0312277000      -0.1898139000
H       -0.6890501000       0.0898162000       0.6722038000
H        0.0807882000       0.5602931000      -0.9033098000
H       -1.4411557000       0.0968934000      -0.8261088000
C       -0.4124526000      -0.1884981000      -0.3162008000
5

H        0.1552121000      -1.0101243000      -0.3000965000
H       -0.7344579000       0.1597579000       0.6825960000
H        0.1301240000       0.5440484000      -0.8934090000
H       -1.4497258000       0.0464240000      -0.8159551000
C       -0.4107028000      -0.1906369000      -0.3096687000
5

H        0.1504244000      -1.0442924000      -0.4138868000
H       -0.7643146000       0.2308631000       0.6960651000
H        0.1906906000       0.5382343000      -0.8758362000
H       -1.4371185000      -0.0348609000      -0.8029682000
C       -0.4142905000      -0.1865199000      -0.3039827000
5

H        0.1494496000      -1.1136705000      -0.5217765000
H       -0.7721752000       0.2902721000       0.7020214000
H        0.2510975000       0.5388573000      -0.8493392000
H       -1.4071210000      -0.1363510000      -0.7918967000
C       -0.4214926000      -0.1773073000      -0.2987498000
5

H        0.1354841000      -1.1828691000      -0.6099798000
H       -0.7567601000       0.3293049000       0.6964792000
H        0.3004108000       0.5407926000      -0.8139985000
H       -1.3717889000      -0.2455640000      -0.7896123000
C       -0.4290750000      -0.1658604000      -0.2942091000
5

H        0.1035648000      -1.2296130000      -0.6663661000
H       -0.7215046000       0.3438789000       0.6812732000
H        0.3307758000       0.5400156000      -0.7726905000
H       -1.3451385000      -0.3514745000      -0.8022150000
C       -0.4344955000      -0.1542950000      -0.2907798000
5

H        0.0578881000      -1.2454838000      -0.6839274000
H       -0.6734061000       0.3342104000       0.6637883000
H        0.3394496000       0.5353226000      -0.7312197000
H       -1.3323014000      -0.4444178000      -0.8295709000
C       -0.4368572000      -0.1440469000      -0.2891943000
5

H        0.0061899000      -1.2295947000      -0.6600851000
H       -0.6214644000       0.3042298000       0.6563132000
H        0.3296151000       0.5291828000      -0.6974770000
H       -1.3281161000      -0.5138309000      -0.8643752000
C       -0.4367549000      -0.1366153000      -0.2906521000
5

H       -0.0425841000      -1.1862989000      -0.5963364000
H       -0.5740643000       0.2591659000       0.6707655000
H        0.3093850000       0.5274050000      -0.6798117000
H       -1.3257523000      -0.5498481000      -0.8975473000
C       -0.4354905000      -0.1333899000      -0.2960899000
5

H       -0.0777993000      -1.1287282000      -0.4995370000
H       -0.5364995000       0.2022860000       0.7086065000
H        0.2880459000       0.5364050000      -0.6841970000
H       -1.3221141000      -0.5469027000      -0.9227262000
C       -0.4345524000      -0.1345486000      -0.3050870000
5

H       -0.0861246000      -1.0843624000      -0.3821125000
H       -0.5111996000       0.1358287000       0.7570398000
H        0.2705357000       0.5580300000      -0.7108662000
H       -1.3173462000      -0.5054735000      -0.9370012000
C       -0.4352589000      -0.1380862000      -0.3157501000
5

H       -0.0568224000      -1.0822946000      -0.2567214000
H       -0.4996851000       0.0652177000       0.7980257000
H        0.2553020000       0.5866377000      -0.7532608000
H       -1.3133598000      -0.4322859000      -0.9402302000
C       -0.4380938000      -0.1409761000      -0.3260641000
5

H        0.0049173000      -1.1183789000      -0.1344626000
H       -0.5032490000      -0.0002962000       0.8185771000
H        0.2379188000       0.6126241000      -0.8007817000
H       -1.3143501000      -0.3392609000      -0.9349836000
C       -0.4417882000      -0.1425360000      -0.3346802000
5

H        0.0792448000      -1.1612194000      -0.0308032000
H       -0.5222066000      -0.0508418000       0.8135011000
H        0.2156225000       0.6279956000      -0.8428191000
H       -1.3265794000      -0.2403051000      -0.9258323000
C       -0.4438907000      -0.1443925000      -0.3403705000
5

H        0.1477316000      -1.1874464000       0.0392282000
H       -0.5552981000      -0.0786563000       0.7844408000
H        0.1891885000       0.6290319000      -0.8714588000
H       -1.3530955000      -0.1472718000      -0.9157228000
C       -0.4427685000      -0.1478520000      -0.3424283000
5

H        0.1993920000      -1.1885577000       0.0672378000
H       -0.5999798000      -0.0789099000       0.7399085000
H        0.1626031000       0.6166548000      -0.8826884000
H       -1.3884291000      -0.0689848000      -0.9031975000
C       -0.4385063000      -0.1533707000      -0.3413228000
5

H        0.2281949000      -1.1635388000       0.0511535000
H       -0.6533847000      -0.0495881000       0.6949359000
H        0.1418035000       0.5960808000      -0.8767724000
H       -1.4214607000      -0.0126189000      -0.8851013000
C       -0.4322711000      -0.1610386000      -0.3383852000
5

H        0.2310060000      -1.1152145000      -0.0060874000
H       -0.7126330000       0.0086077000       0.6651128000
H        0.1331066000       0.5758496000      -0.8578860000
H       -1.4421575000       0.0161885000      -0.8607113000
C       -0.4254146000      -0.1708033000      -0.3348813000
5

H        0.2094462000      -1.0530738000      -0.0959527000
H       -0.7725802000       0.0909128000       0.6551908000
H        0.1409871000       0.5650396000      -0.8322567000
H       -1.4448749000       0.0142347000      -0.8327986000
C       -0.4193546000      -0.1819613000      -0.3311710000
5

H        0.1762425000      -1.0012315000      -0.2035102000
H       -0.8237038000       0.1862686000       0.6560446000
H        0.1651968000       0.5685438000      -0.8048177000
H       -1.4287395000      -0.0185275000      -0.8066608000
C       -0.4160122000      -0.1919656000      -0.3268823000
5

H        0.1556588000      -0.9967200000      -0.3129693000
H       -0.8553077000       0.2789869000       0.6552077000
H        0.1995399000       0.5840275000      -0.7771838000
H       -1.3984028000      -0.0783416000      -0.7893182000
C       -0.4174125000      -0.1965079000      -0.3215696000
5

H        0.1581802000      -1.0527023000      -0.4162873000
H       -0.8608659000       0.3542911000       0.6457729000
H        0.2343372000       0.6039583000      -0.7491756000
H       -1.3654230000      -0.1575897000      -0.7890853000
C       -0.4232006000      -0.1932486000      -0.3146450000
5

H        0.1663856000      -1.1369235000      -0.5062501000
H       -0.8400764000       0.4021810000       0.6270286000
H        0.2604898000       0.6200147000      -0.7215052000
H       -1.3441479000      -0.2469709000      -0.8130999000
C       -0.4299699000      -0.1841390000      -0.3059955000
5

H        0.1623908000      -1.2107891000      -0.5718980000
H       -0.7981322000       0.4183148000       0.6030920000
H        0.2724798000       0.6262297000      -0.6969082000
H       -1.3387161000      -0.3377119000      -0.8608329000
C       -0.4349712000      -0.1722914000      -0.2967017000
5

H        0.1411782000      -1.2535265000      -0.6046547000
H       -0.7446032000       0.4045226000       0.5836273000
H        0.2696322000       0.6206233000      -0.6797769000
H       -1.3384238000      -0.4200004000      -0.9207931000
C       -0.4378219000      -0.1602622000      -0.2888922000
5

H        0.1051547000      -1.2576101000      -0.6003778000
H       -0.6915564000       0.3687363000       0.5841712000
H        0.2557632000       0.6057212000      -0.6751858000
H       -1.3300437000      -0.4828124000      -0.9771564000
C       -0.4391421000      -0.1504878000      -0.2851228000
5

H        0.0596848000      -1.2227997000      -0.5587062000
H       -0.6490156000       0.3201546000       0.6188683000
H        0.2375385000       0.5878188000      -0.6875541000
H       -1.3077979000      -0.5172572000      -1.0176608000
C       -0.4395851000      -0.1450363000      -0.2872704000
5

H        0.0129261000      -1.1567873000      -0.4834238000
H       -0.6202896000       0.2615379000       0.6851695000
H        0.2216292000       0.5742647000      -0.7186723000
H       -1.2738005000      -0.5190463000      -1.0362689000
C       -0.4399409000      -0.1444707000      -0.2951595000
5

H       -0.0213899000      -1.0823958000      -0.3834607000
H       -0.6033987000       0.1911089000       0.7605805000
H        0.2114978000       0.5690930000      -0.7655555000
H       -1.2358669000      -0.4893785000      -1.0332461000
C       -0.4411635000      -0.1469629000      -0.3063791000
5

H       -0.0236198000      -1.0397068000      -0.2701132000
H       -0.5961568000       0.1114413000       0.8189546000
H        0.2063506000       0.5704314000      -0.8200583000
H       -1.2064277000      -0.4354999000      -1.0153209000
C       -0.4439757000      -0.1485972000      -0.3179036000
5

H        0.0161628000      -1.0525884000      -0.1519424000
H       -0.5982650000       0.0316208000       0.8441931000
H        0.2033508000       0.5728659000      -0.8714447000
H       -1.2013910000      -0.3700254000      -0.9950178000
C       -0.4476619000      -0.1466178000      -0.3275118000
5

H        0.0821120000      -1.0974047000      -0.0417041000
H       -0.6103046000      -0.0365856000       0.8319359000
H        0.2002552000       0.5717937000      -0.9100066000
H       -1.2333252000      -0.3062285000      -0.9840013000
C       -0.4495985000      -0.1424965000      -0.3336016000
5

H        0.1501201000      -1.1396628000       0.0427966000
H       -0.6323315000      -0.0826508000       0.7869953000
H        0.1963738000       0.5652508000      -0.9293219000
H       -1.2982519000      -0.2520699000      -0.9815995000
C       -0.4480323000      -0.1391808000      -0.3356774000
5

H        0.2050801000      -1.1623874000       0.0895016000
H       -0.6639158000      -0.0991763000       0.7232398000
H        0.1924804000       0.5539862000      -0.9271055000
H       -1.3747914000      -0.2105969000      -0.9760573000
C       -0.4435913000      -0.1385244000      -0.3350708000
5

H        0.2395921000      -1.1605834000       0.0943155000
H       -0.7055439000      -0.0822617000       0.6641312000
H        0.1906021000       0.5415687000      -0.9053912000
H       -1.4393429000      -0.1834856000      -0.9575248000
C       -0.4377657000      -0.1414335000      -0.3340643000
5

H        0.2493983000      -1.1334823000       0.0584619000
H       -0.7584214000      -0.0310919000       0.6337243000
H        0.1937697000       0.5341520000      -0.8699663000
H       -1.4763228000      -0.1720671000      -0.9239445000
C       -0.4316595000      -0.1484460000      -0.3344682000
5

H        0.2324756000      -1.0835488000      -0.0125464000
H       -0.8189731000       0.0510389000       0.6365323000
H        0.2046437000       0.5384667000      -0.8283116000
H       -1.4789774000      -0.1770573000      -0.8793597000
C       -0.4261937000      -0.1595835000      -0.3361567000
5

H        0.1931795000      -1.0220961000      -0.1074492000
H       -0.8750650000       0.1534804000       0.6541214000
H        0.2224828000       0.5576731000      -0.7862527000
H       -1.4484678000      -0.1981869000      -0.8315592000
C       -0.4225937000      -0.1732896000      -0.3373835000
5

H        0.1504440000      -0.9788745000      -0.2085913000
H       -0.9125884000       0.2594135000       0.6654974000
H        0.2414111000       0.5882279000      -0.7462269000
H       -1.3955046000      -0.2337464000      -0.7914243000
C       -0.4222413000      -0.1854990000      -0.3367496000
5

H        0.1336173000      -0.9939225000      -0.2998049000
H       -0.9228876000       0.3518022000       0.6598647000
H        0.2531282000       0.6215760000      -0.7090968000
H       -1.3428879000      -0.2805539000      -0.7730761000
C       -0.4257168000      -0.1909671000      -0.3334481000
5

H        0.1486580000      -1.0700160000      -0.3755765000
H       -0.9042322000       0.4175781000       0.6353955000
H        0.2514418000       0.6488763000      -0.6767736000
H       -1.3177502000      -0.3349356000      -0.7901326000
C       -0.4308670000      -0.1879295000      -0.3264842000
5

H        0.1725209000      -1.1645810000      -0.4327357000
H       -0.8606158000       0.4489039000       0.5959255000
H        0.2350285000       0.6644139000      -0.6530990000
H       -1.3265756000      -0.3921168000      -0.8440623000
C       -0.4347655000      -0.1792242000      -0.3160004000
5

H        0.1857127000      -1.2384135000      -0.4661466000
H       -0.8010868000       0.4443209000       0.5513319000
H        0.2079615000       0.6669441000      -0.6433818000
H       -1.3479613000      -0.4434803000      -0.9187185000
C       -0.4371548000      -0.1686405000      -0.3041677000
5

H        0.1810801000      -1.2721871000      -0.4725854000
H       -0.7396588000       0.4116333000       0.5208752000
H        0.1781057000       0.6596960000      -0.6532779000
H       -1.3577043000      -0.4790811000      -0.9922009000
C       -0.4389507000      -0.1595638000      -0.2942395000
5

H        0.1581172000      -1.2591502000      -0.4517110000
H       -0.6919600000       0.3674046000       0.5315434000
H        0.1534714000       0.6482688000      -0.6865627000
H       -1.3442307000      -0.4922648000      -1.0477778000
C       -0.4404429000      -0.1549812000      -0.2895991000
5

H        0.1201104000      -1.2008707000      -0.4058866000
H       -0.6657812000       0.3231488000       0.5971262000
H        0.1380524000       0.6365552000      -0.7419104000
H       -1.3071291000      -0.4809626000      -1.0759175000
C       -0.4416229000      -0.1562288000      -0.2921180000
5

H        0.0759517000      -1.1108570000      -0.3404796000
H       -0.6566822000       0.2743147000       0.6961325000
H        0.1306823000       0.6241309000      -0.8111545000
H       -1.2537722000      -0.4475679000      -1.0741180000
C       -0.4428927000      -0.1615535000      -0.3004367000
5

H        0.0453182000      -1.0239720000      -0.2628322000
H       -0.6567203000       0.2139158000       0.7896151000
H        0.1279997000       0.6078633000      -0.8815802000
H       -1.1991082000      -0.3992033000      -1.0484201000
C       -0.4450341000      -0.1665791000      -0.3112276000
5

H        0.0549076000      -0.9886308000      -0.1775809000
H       -0.6614421000       0.1440277000       0.8492435000
H        0.1279157000       0.5855014000      -0.9406913000
H       -1.1666840000      -0.3477811000      -1.0156742000
C       -0.4485106000      -0.1662241000      -0.3213560000
5

H        0.1083543000      -1.0152633000      -0.0892289000
H       -0.6695824000       0.0732949000       0.8628446000
H        0.1305428000       0.5578951000      -0.9797991000
H       -1.1818156000      -0.3065670000      -0.9975053000
C       -0.4516173000      -0.1592957000      -0.3283349000
5

H        0.1779467000      -1.0668444000      -0.0121144000
H       -0.6808976000       0.0121011000       0.8297997000
H        0.1372320000       0.5286382000      -0.9950934000
H       -1.2491256000      -0.2829944000      -0.9990794000
C       -0.4517724000      -0.1494526000      -0.3307942000
5

H        0.2374571000      -1.1107035000       0.0385810000
H       -0.6953367000      -0.0300818000       0.7593446000
H        0.1495059000       0.5024920000      -0.9873119000
H       -1.3430069000      -0.2766891000      -1.0030624000
C       -0.4490557000      -0.1406658000      -0.3296283000
5

H        0.2742261000      -1.1333215000       0.0557436000
H       -0.7146011000      -0.0455581000       0.6745520000
H        0.1685357000       0.4845454000      -0.9610356000
H       -1.4303510000      -0.2839434000      -0.9917093000
C       -0.4451404000      -0.1354556000      -0.3272830000
5

H        0.2832401000      -1.1307666000       0.0388144000
H       -0.7444722000      -0.0286441000       0.6135009000
H        0.1947287000       0.4796079000      -0.9230426000
H       -1.4885280000      -0.3008463000      -0.9589596000
C       -0.4410547000      -0.1353623000      -0.3268494000
5

H        0.2626822000      -1.1028740000      -0.0088097000
H       -0.7902418000       0.0231902000       0.6058603000
H        0.2266420000       0.4907387000      -0.8796958000
H       -1.5063715000      -0.3240472000      -0.9075686000
C       -0.4370184000      -0.1411504000      -0.3303378000
5

H        0.2146218000      -1.0543238000      -0.0799827000
H       -0.8444001000       0.1047671000       0.6400738000
H        0.2594891000       0.5172879000      -0.8349339000
H       -1.4816341000      -0.3507671000      -0.8451846000
C       -0.4336223000      -0.1521709000      -0.3364054000
5

H        0.1508589000      -1.0019634000      -0.1621570000
H       -0.8894065000       0.2012234000       0.6808647000
H        0.2851067000       0.5540556000      -0.7902844000
H       -1.4222188000      -0.3788416000      -0.7831675000
C       -0.4319811000      -0.1655055000      -0.3420609000
5

H        0.0987946000      -0.9820262000      -0.2383238000
H       -0.9117763000       0.2946313000       0.7034875000
H        0.2948097000       0.5928104000      -0.7467559000
H       -1.3516633000      -0.4076555000      -0.7373057000
C       -0.4328228000      -0.1759655000      -0.3452441000
5

H        0.0850923000      -1.0273328000      -0.2963564000
H       -0.9063668000       0.3700574000       0.6986565000
H        0.2832045000       0.6254193000      -0.7067035000
H       -1.3083149000      -0.4394239000      -0.7262942000
C       -0.4351449000      -0.1786717000      -0.3444256000
5

H        0.1041079000      -1.1206967000      -0.3345221000
H       -0.8742431000       0.4171939000       0.6660913000
H        0.2506514000       0.6469386000      -0.6745011000
H       -1.3166682000      -0.4750872000      -0.7601519000
C       -0.4363573000      -0.1737075000      -0.3385187000
5

H        0.1315584000      -1.2146766000      -0.3537089000
H       -0.8210302000       0.4305866000       0.6116795000
H        0.2041077000       0.6574850000      -0.6564429000
H       -1.3585733000      -0.5064768000      -0.8278778000
C       -0.4360566000      -0.1652949000      -0.3283384000
5

H        0.1510269000      -1.2757271000      -0.3545272000
H       -0.7572423000       0.4116308000       0.5500696000
H        0.1554611000       0.6621253000      -0.6600689000
H       -1.3984733000      -0.5214768000      -0.9066144000
C       -0.4359657000      -0.1578116000      -0.3163509000
5

H        0.1557088000      -1.2888823000      -0.3385550000
H       -0.6986502000       0.3730795000       0.5098611000
H        0.1161883000       0.6670631000      -0.6915627000
H       -1.4138836000      -0.5133065000      -0.9765363000
C       -0.4370409000      -0.1546762000      -0.3059711000
5

H        0.1440400000      -1.2504997000      -0.3086762000
H       -0.6607773000       0.3361951000       0.5264055000
H        0.0908672000       0.6729664000      -0.7507381000
H       -1.3974177000      -0.4814772000      -1.0245448000
C       -0.4388518000      -0.1580777000      -0.3010414000
5

H        0.1188961000      -1.1669830000      -0.2691544000
H       -0.6468471000       0.3092486000       0.6059454000
H        0.0763091000       0.6730544000      -0.8279311000
H       -1.3514007000      -0.4300616000      -1.0435864000
C       -0.4409060000      -0.1672613000      -0.3031320000
5

H        0.0914397000      -1.0612587000      -0.2248595000
H       -0.6480516000       0.2811312000       0.7113899000
H        0.0672560000       0.6591020000      -0.9074233000
H       -1.2863091000      -0.3669718000      -1.0334909000
C       -0.4435588000      -0.1780132000      -0.3100531000
5

H        0.0863730000      -0.9790665000      -0.1778927000
H       -0.6557759000       0.2427319000       0.8004607000
H        0.0613366000       0.6277134000      -0.9741171000
H       -1.2232433000      -0.3036678000      -1.0043718000
C       -0.4476371000      -0.1844792000      -0.3184960000
5

H        0.1272937000      -0.9615978000      -0.1267035000
H       -0.6657729000       0.1948113000       0.8492685000
H        0.0597482000       0.5819632000      -1.0180225000
H       -1.1945133000      -0.2530974000      -0.9784912000
C       -0.4528668000      -0.1824346000      -0.3255538000
5

H        0.2019565000      -0.9971955000      -0.0769913000
H       -0.6762114000       0.1433933000       0.8492414000
H        0.0656658000       0.5298362000      -1.0355299000
H       -1.2261847000      -0.2246941000      -0.9757521000
C       -0.4564510000      -0.1732424000      -0.3286596000
5

H        0.2756351000      -1.0466517000      -0.0419520000
H       -0.6859622000       0.0959807000       0.8018056000
H        0.0825276000       0.4814030000      -1.0288901000
H       -1.3088713000      -0.2212724000      -0.9893527000
C       -0.4566450000      -0.1614349000      -0.3272069000
5

H        0.3245592000      -1.0852280000      -0.0299807000
H       -0.6949725000       0.0605872000       0.7199018000
H        0.1126917000       0.4462234000      -1.0048689000
H       -1.4062564000      -0.2402521000      -0.9960300000
C       -0.4547049000      -0.1507821000      -0.3229632000
5

H        0.3389234000      -1.1034740000      -0.0424786000
H       -0.7069694000       0.0464243000       0.6352469000
H        0.1560629000       0.4310354000      -0.9717071000
H       -1.4858666000      -0.2759068000      -0.9810002000
C       -0.4522137000      -0.1438982000      -0.3190240000
5

H        0.3161064000      -1.0988648000      -0.0767271000
H       -0.7306646000       0.0631445000       0.5943449000
H        0.2084042000       0.4376523000      -0.9348214000
H       -1.5288506000      -0.3215489000      -0.9416034000
C       -0.4494471000      -0.1425201000      -0.3192916000
5

H        0.2580511000      -1.0731199000      -0.1274817000
H       -0.7693756000       0.1134596000       0.6170462000
H        0.2610331000       0.4627547000      -0.8954871000
H       -1.5270172000      -0.3707679000      -0.8822671000
C       -0.4462480000      -0.1469907000      -0.3253947000
5

H        0.1739772000      -1.0355586000      -0.1867119000
H       -0.8107640000       0.1858386000       0.6721560000
H        0.3031682000       0.4996609000      -0.8533115000
H       -1.4811686000      -0.4177611000      -0.8117586000
C       -0.4434542000      -0.1554850000      -0.3346847000
5

H        0.0858659000      -1.0104682000      -0.2430315000
H       -0.8388088000       0.2618218000       0.7198585000
H        0.3252278000       0.5402282000      -0.8087058000
H       -1.4047019000      -0.4580639000      -0.7431776000
C       -0.4423277000      -0.1641040000      -0.3436390000
